# BCC HfMoTaTiZr; n=2000; seed=20261834

2000 atoms
5 atom types

0.0 34.5 xlo xhi
0.0 34.5 ylo yhi
0.0 34.5 zlo zhi
0 0 0 xy xz yz

Masses

1 178.49 # Hf
2 95.95 # Mo
3 180.94788 # Ta
4 47.867 # Ti
5 91.224 # Zr

Atoms # atomic

1 2 0 0 0
2 3 0 0 3.45
3 3 0 0 6.9
4 1 0 0 10.35
5 5 0 0 13.8
6 5 0 0 17.25
7 1 0 0 20.7
8 4 0 0 24.15
9 1 0 0 27.6
10 3 0 0 31.05
11 2 0 3.45 0
12 3 0 3.45 3.450000000000001
13 5 0 6.9 0
14 5 0 6.9 6.900000000000001
15 4 0 10.35 0
16 2 0 10.35 3.449999999999999
17 4 0 10.35 10.35
18 3 0 10.35 13.8
19 3 0 10.35 17.25
20 4 0 10.35 27.6
21 1 0 13.8 0
22 1 0 13.8 3.449999999999999
23 5 0 13.8 10.35
24 2 0 13.8 13.8
25 4 0 13.8 17.25
26 5 0 13.8 24.15000000000001
27 3 0 13.8 31.05
28 5 0 17.25 0
29 3 0 17.25 6.900000000000002
30 4 0 17.25 10.35
31 4 0 17.25 13.8
32 5 0 17.25 17.25
33 4 0 17.25 20.7
34 3 0 17.25 27.6
35 4 0 20.7 0
36 5 0 20.7 3.449999999999999
37 2 0 20.7 6.899999999999999
38 1 0 20.7 17.25
39 4 0 20.7 20.7
40 1 0 20.7 27.6
41 2 0 24.15 0
42 2 0 24.15 3.449999999999999
43 3 0 24.15 13.8
44 5 0 24.15 24.15
45 3 0 24.15 31.05
46 5 0 27.6 0
47 1 0 27.6 3.449999999999999
48 2 0 27.6 6.899999999999999
49 5 0 27.6 10.35
50 5 0 27.6 17.25
51 4 0 27.6 20.7
52 2 0 27.6 27.6
53 5 0 31.05 0
54 3 0 31.05 3.450000000000001
55 2 0 31.05 13.8
56 3 0 31.05 24.15000000000001
57 4 0 31.05 31.05
58 2 4.787836793695988e-16 3.45 10.35
59 4 4.787836793695988e-16 3.45 13.8
60 4 4.787836793695988e-16 3.45 20.7
61 2 4.787836793695988e-16 3.45 24.15
62 2 4.787836793695988e-16 3.45 27.6
63 4 4.787836793695988e-16 3.45 31.05
64 1 9.575673587391975e-16 6.899999999999999 10.35
65 2 9.575673587391975e-16 6.899999999999999 20.7
66 4 9.575673587391975e-16 6.899999999999999 24.15
67 4 9.575673587391975e-16 6.899999999999999 27.6
68 1 9.575673587391975e-16 10.35 6.899999999999999
69 3 1.915134717478395e-15 10.35 20.7
70 2 1.915134717478395e-15 10.35 24.15
71 2 1.915134717478395e-15 13.8 20.7
72 3 1.915134717478395e-15 20.7 10.35
73 1 1.915134717478395e-15 20.7 13.8
74 4 1.915134717478395e-15 20.7 24.15
75 2 1.915134717478395e-15 20.7 31.05
76 5 1.915134717478395e-15 24.15 6.9
77 5 1.915134717478395e-15 24.15 10.35
78 2 1.915134717478395e-15 24.15 20.7
79 3 1.915134717478395e-15 24.15 27.59999999999999
80 1 1.915134717478395e-15 27.6 24.15
81 2 1.915134717478395e-15 31.05 20.7
82 5 1.724999999999998 8.625000000000004 32.77500000000001
83 4 1.724999999999998 12.075 29.325
84 5 1.724999999999998 15.525 25.875
85 5 1.724999999999998 15.525 32.77500000000001
86 3 1.724999999999998 25.875 15.525
87 5 1.724999999999998 25.875 32.77500000000001
88 2 1.724999999999998 29.325 12.075
89 3 1.724999999999998 29.325 29.325
90 5 1.724999999999998 32.77500000000001 5.175000000000001
91 1 1.724999999999998 32.77500000000001 8.625000000000004
92 4 1.724999999999998 32.77500000000001 15.525
93 2 1.724999999999998 32.77500000000001 25.875
94 2 1.724999999999998 32.77500000000001 32.77500000000001
95 5 1.724999999999999 5.175000000000002 15.525
96 4 1.724999999999999 5.175000000000002 32.77500000000001
97 5 1.724999999999999 15.525 5.175000000000001
98 5 1.725 5.175000000000001 5.175
99 1 1.725 8.625000000000002 12.075
100 1 1.725 8.625000000000002 15.525
101 5 1.725 8.625000000000002 29.325
102 1 1.725 12.075 1.725
103 4 1.725 12.075 8.625000000000002
104 3 1.725 12.075 12.075
105 5 1.725 12.075 15.525
106 1 1.725 12.075 25.875
107 4 1.725 12.075 32.775
108 2 1.725 15.525 1.725
109 5 1.725 15.525 8.625
110 1 1.725 15.525 12.075
111 1 1.725 15.525 15.525
112 1 1.725 15.525 22.425
113 4 1.725 15.525 29.325
114 1 1.725 18.975 1.725
115 5 1.725 18.975 22.425
116 3 1.725 18.975 29.325
117 5 1.725 22.425 1.725
118 5 1.725 22.425 5.174999999999999
119 5 1.725 22.425 15.525
120 5 1.725 22.425 18.975
121 1 1.725 22.425 25.875
122 3 1.725 22.425 32.775
123 4 1.725 25.875 1.725
124 4 1.725 25.875 12.075
125 4 1.725 25.875 22.425
126 2 1.725 25.875 29.325
127 3 1.725 29.325 1.725
128 5 1.725 29.325 5.174999999999999
129 1 1.725 29.325 8.625000000000002
130 1 1.725 29.325 15.525
131 3 1.725 29.325 18.975
132 2 1.725 29.325 25.87500000000001
133 5 1.725 29.325 32.775
134 2 1.725 32.775 1.725000000000001
135 3 1.725 32.775 12.075
136 5 1.725 32.775 22.425
137 4 1.725 32.775 29.325
138 4 1.725 1.725 1.725
139 1 1.725 1.725 5.175000000000001
140 3 1.725 1.725 8.625000000000002
141 3 1.725 1.725 12.075
142 4 1.725 1.725 15.525
143 3 1.725 1.725 18.975
144 4 1.725 1.725 22.425
145 1 1.725 1.725 25.875
146 3 1.725 1.725 29.325
147 1 1.725 1.725 32.775
148 2 1.725 5.175000000000001 1.725000000000001
149 1 1.725 8.625000000000002 1.725
150 1 1.725000000000001 5.175 8.625
151 5 1.725000000000001 5.175 12.075
152 3 1.725000000000001 5.175 18.975
153 1 1.725000000000001 5.175 22.425
154 3 1.725000000000001 5.175 25.875
155 4 1.725000000000001 5.175 29.325
156 5 1.725000000000001 8.625 5.175000000000001
157 3 1.725000000000001 12.075 5.174999999999999
158 1 1.725000000000001 8.625 8.625
159 1 1.725000000000001 8.625 18.975
160 4 1.725000000000001 8.625 22.425
161 5 1.725000000000001 8.625 25.875
162 5 1.725000000000001 12.075 18.975
163 1 1.725000000000001 12.075 22.425
164 4 1.725000000000001 15.525 18.975
165 1 1.725000000000001 18.975 5.175000000000001
166 3 1.725000000000001 18.975 8.625
167 3 1.725000000000001 18.975 12.075
168 3 1.725000000000001 18.975 15.525
169 3 1.725000000000001 18.975 18.975
170 4 1.725000000000001 18.975 25.875
171 3 1.725000000000001 18.975 32.775
172 3 1.725000000000001 22.425 8.625000000000002
173 2 1.725000000000001 22.425 12.075
174 4 1.725000000000001 22.425 22.425
175 1 1.725000000000001 22.425 29.325
176 2 1.725000000000001 25.875 5.175000000000001
177 3 1.725000000000001 25.875 8.625
178 5 1.725000000000001 25.875 18.975
179 3 1.725000000000001 25.875 25.875
180 2 1.725000000000001 29.325 22.425
181 5 1.725000000000001 32.775 18.975
182 2 3.449999999999998 10.35 31.05
183 4 3.449999999999998 13.8 27.6
184 2 3.449999999999998 27.6 13.8
185 5 3.449999999999998 27.6 31.05
186 3 3.449999999999998 31.05 10.35
187 2 3.449999999999998 31.05 27.6
188 4 3.449999999999999 6.900000000000002 13.8
189 2 3.449999999999999 6.900000000000002 31.05
190 4 3.449999999999999 10.35 10.35
191 3 3.449999999999999 10.35 13.8
192 3 3.449999999999999 10.35 27.6
193 5 3.449999999999999 13.8 0
194 5 3.449999999999999 13.8 6.900000000000002
195 4 3.449999999999999 13.8 10.35
196 5 3.449999999999999 13.8 13.8
197 3 3.449999999999999 13.8 24.15
198 1 3.449999999999999 13.8 31.05
199 5 3.449999999999999 17.25 24.15
200 3 3.449999999999999 17.25 31.05
201 3 3.449999999999999 20.7 0
202 5 3.449999999999999 20.7 20.7
203 2 3.449999999999999 20.7 27.6
204 1 3.449999999999999 24.15 0
205 4 3.449999999999999 24.15 3.449999999999999
206 3 3.449999999999999 24.15 13.8
207 5 3.449999999999999 24.15 17.25
208 3 3.449999999999999 24.15 24.15
209 1 3.449999999999999 24.15 31.05
210 2 3.449999999999999 27.6 0
211 1 3.449999999999999 27.6 10.35
212 4 3.449999999999999 27.6 20.7
213 5 3.449999999999999 27.6 27.6
214 1 3.449999999999999 31.05 0
215 3 3.449999999999999 31.05 3.449999999999999
216 5 3.449999999999999 31.05 6.900000000000002
217 4 3.449999999999999 31.05 13.8
218 2 3.449999999999999 31.05 17.25
219 3 3.449999999999999 31.05 24.15000000000001
220 1 3.449999999999999 31.05 31.05
221 2 3.45 4.787836793695988e-16 10.35
222 4 3.45 4.787836793695988e-16 13.8
223 5 3.45 4.787836793695988e-16 20.7
224 2 3.45 4.787836793695988e-16 24.15
225 1 3.45 4.787836793695988e-16 27.6
226 5 3.45 4.787836793695988e-16 31.05
227 3 3.45 10.35 0
228 1 3.45 0 0
229 2 3.45 0 3.450000000000001
230 2 3.45 3.45 0
231 2 3.45 3.45 3.45
232 5 3.45 3.45 6.900000000000001
233 3 3.45 3.45 10.35
234 3 3.45 3.45 13.8
235 5 3.45 3.45 17.25
236 3 3.45 3.45 20.7
237 2 3.45 3.45 24.15
238 5 3.45 3.45 27.6
239 4 3.45 3.45 31.05
240 5 3.45 6.900000000000001 3.449999999999999
241 3 3.45 10.35 3.450000000000001
242 1 3.45 13.8 3.449999999999999
243 4 3.45 17.25 3.449999999999999
244 2 3.450000000000001 6.9 0
245 4 3.450000000000001 34.5 6.9
246 4 3.450000000000001 6.9 6.9
247 4 3.450000000000001 6.9 10.35
248 5 3.450000000000001 6.9 17.25
249 2 3.450000000000001 6.9 20.7
250 1 3.450000000000001 6.9 24.15
251 5 3.450000000000001 6.9 27.6
252 3 3.450000000000001 10.35 6.9
253 5 3.450000000000001 10.35 17.25
254 4 3.450000000000001 10.35 20.7
255 4 3.450000000000001 10.35 24.15
256 4 3.450000000000001 13.8 17.25
257 1 3.450000000000001 13.8 20.7
258 1 3.450000000000001 17.25 6.899999999999999
259 2 3.450000000000001 17.25 10.35
260 1 3.450000000000001 17.25 13.8
261 5 3.450000000000001 17.25 20.7
262 4 3.450000000000001 17.25 27.6
263 3 3.450000000000001 17.25 34.5
264 2 3.450000000000001 20.7 3.450000000000001
265 3 3.450000000000001 20.7 6.9
266 4 3.450000000000001 20.7 10.35
267 5 3.450000000000001 20.7 13.8
268 1 3.450000000000001 20.7 17.25
269 3 3.450000000000001 20.7 24.15
270 2 3.450000000000001 20.7 31.05
271 3 3.450000000000001 24.15 6.900000000000002
272 1 3.450000000000001 24.15 10.35
273 2 3.450000000000001 24.15 20.7
274 1 3.450000000000001 24.15 27.6
275 4 3.450000000000001 27.6 3.450000000000001
276 4 3.450000000000001 27.6 6.9
277 5 3.450000000000001 27.6 17.25
278 3 3.450000000000001 27.6 24.15
279 4 3.450000000000001 31.05 20.7
280 5 3.450000000000002 34.5 17.25
281 5 3.450000000000003 17.25 17.25
282 3 5.174999999999997 12.075 29.325
283 4 5.174999999999997 29.325 12.075
284 5 5.174999999999997 29.325 29.325
285 5 5.174999999999999 8.625000000000002 12.075
286 3 5.174999999999999 8.625000000000002 29.325
287 1 5.174999999999999 8.625000000000002 32.77500000000001
288 2 5.174999999999999 12.075 8.625
289 1 5.174999999999999 12.075 12.075
290 5 5.174999999999999 12.075 25.875
291 5 5.174999999999999 15.525 25.875
292 1 5.174999999999999 18.975 22.425
293 1 5.174999999999999 18.975 29.325
294 3 5.174999999999999 22.425 18.975
295 3 5.174999999999999 22.425 25.875
296 4 5.174999999999999 25.875 1.725
297 3 5.174999999999999 25.875 12.075
298 5 5.174999999999999 25.875 15.525
299 5 5.174999999999999 25.875 22.425
300 5 5.174999999999999 25.875 29.325
301 1 5.174999999999999 25.875 32.77500000000001
302 1 5.174999999999999 29.325 8.625
303 4 5.174999999999999 29.325 18.975
304 5 5.174999999999999 29.325 25.875
305 3 5.174999999999999 32.77500000000001 8.625
306 3 5.174999999999999 32.77500000000001 25.875
307 1 5.175 1.725000000000001 8.625
308 5 5.175 1.725000000000001 12.075
309 5 5.175 1.725000000000001 18.975
310 4 5.175 1.725000000000001 22.425
311 2 5.175 1.725000000000001 25.875
312 1 5.175 1.725000000000001 29.325
313 4 5.175 8.625 1.725
314 1 5.175 12.075 1.725000000000001
315 5 5.175 18.975 1.725
316 3 5.175000000000001 1.725 5.175
317 2 5.175000000000001 1.725 1.725000000000001
318 4 5.175000000000001 5.175000000000001 1.725
319 4 5.175000000000001 5.175000000000001 5.175000000000001
320 2 5.175000000000001 5.175000000000001 8.625
321 3 5.175000000000001 5.175000000000001 12.075
322 5 5.175000000000001 5.175000000000001 15.525
323 4 5.175000000000001 5.175000000000001 18.975
324 3 5.175000000000001 5.175000000000001 22.425
325 5 5.175000000000001 5.175000000000001 25.875
326 1 5.175000000000001 5.175000000000001 29.325
327 1 5.175000000000001 5.175000000000001 32.77500000000001
328 1 5.175000000000001 8.625 5.175000000000001
329 1 5.175000000000001 8.625 8.625
330 4 5.175000000000001 8.625 15.525
331 4 5.175000000000001 8.625 18.975
332 5 5.175000000000001 8.625 22.425
333 4 5.175000000000001 8.625 25.875
334 4 5.175000000000001 12.075 5.175000000000001
335 4 5.175000000000001 12.075 15.525
336 3 5.175000000000001 12.075 18.975
337 3 5.175000000000001 12.075 22.425
338 1 5.175000000000001 12.075 32.77500000000001
339 4 5.175000000000001 15.525 5.175000000000001
340 1 5.175000000000001 15.525 8.625
341 3 5.175000000000001 15.525 12.075
342 3 5.175000000000001 15.525 22.425
343 5 5.175000000000001 15.525 29.325
344 1 5.175000000000001 15.525 32.775
345 3 5.175000000000001 18.975 5.174999999999999
346 3 5.175000000000001 18.975 8.625000000000002
347 5 5.175000000000001 18.975 12.075
348 4 5.175000000000001 18.975 18.975
349 3 5.175000000000001 18.975 25.875
350 1 5.175000000000001 22.425 1.725000000000001
351 1 5.175000000000001 22.425 5.175000000000001
352 5 5.175000000000001 22.425 8.625
353 1 5.175000000000001 22.425 12.075
354 3 5.175000000000001 22.425 15.525
355 3 5.175000000000001 22.425 22.425
356 3 5.175000000000001 22.425 29.325
357 2 5.175000000000001 22.425 32.77500000000001
358 2 5.175000000000001 25.875 5.175000000000002
359 2 5.175000000000001 25.875 8.624999999999998
360 5 5.175000000000001 25.875 18.975
361 5 5.175000000000001 25.875 25.875
362 2 5.175000000000001 29.325 1.725000000000001
363 2 5.175000000000001 29.325 5.175000000000001
364 4 5.175000000000001 29.325 15.525
365 3 5.175000000000001 29.325 22.425
366 2 5.175000000000001 29.325 32.77500000000001
367 2 5.175000000000001 32.77500000000001 1.724999999999998
368 4 5.175000000000001 32.77500000000001 5.175000000000001
369 2 5.175000000000001 32.77500000000001 12.075
370 3 5.175000000000001 32.77500000000001 15.525
371 2 5.175000000000001 32.77500000000001 22.425
372 5 5.175000000000001 32.77500000000001 29.325
373 5 5.175000000000001 32.77500000000001 32.775
374 4 5.175000000000002 1.724999999999999 15.525
375 2 5.175000000000002 1.724999999999999 32.77500000000001
376 2 5.175000000000002 15.525 1.724999999999998
377 5 5.175000000000002 15.525 15.525
378 3 5.175000000000002 15.525 18.975
379 4 5.175000000000002 18.975 15.525
380 5 5.175000000000002 18.975 32.775
381 3 5.175000000000002 32.775 18.975
382 3 6.899999999999999 10.35 10.35
383 5 6.899999999999999 10.35 27.6
384 2 6.899999999999999 10.35 31.05
385 3 6.899999999999999 13.8 27.6
386 4 6.899999999999999 17.25 24.15
387 5 6.899999999999999 20.7 20.7
388 3 6.899999999999999 20.7 27.6
389 1 6.899999999999999 24.15 17.25000000000001
390 5 6.899999999999999 24.15 24.15000000000001
391 2 6.899999999999999 27.6 0
392 2 6.899999999999999 27.6 10.35
393 4 6.899999999999999 27.6 13.8
394 1 6.899999999999999 27.6 20.7
395 1 6.899999999999999 27.6 27.6
396 5 6.899999999999999 27.6 31.05
397 4 6.899999999999999 31.05 10.35
398 3 6.899999999999999 31.05 27.6
399 3 6.899999999999999 9.575673587391975e-16 10.35
400 2 6.899999999999999 9.575673587391975e-16 20.7
401 2 6.899999999999999 9.575673587391975e-16 24.15
402 3 6.899999999999999 9.575673587391975e-16 27.6
403 5 6.899999999999999 10.35 0
404 4 6.899999999999999 20.7 0
405 3 6.9 0 0
406 1 6.9 0 6.900000000000001
407 4 6.9 3.450000000000001 0
408 5 6.9 3.450000000000001 6.9
409 1 6.9 3.450000000000001 10.35
410 1 6.9 3.450000000000001 17.25
411 1 6.9 3.450000000000001 20.7
412 2 6.9 3.450000000000001 24.15
413 3 6.9 3.450000000000001 27.6
414 1 6.9 6.9 0
415 2 6.9 6.9 3.450000000000001
416 5 6.9 6.9 6.9
417 5 6.9 6.9 10.35
418 2 6.9 6.9 13.8
419 3 6.9 6.9 17.25
420 5 6.9 6.9 20.7
421 5 6.9 6.9 24.15
422 5 6.9 6.9 27.6
423 2 6.9 6.9 31.05
424 1 6.9 10.35 3.450000000000001
425 4 6.9 10.35 6.9
426 2 6.9 10.35 13.8
427 3 6.9 10.35 17.25
428 4 6.9 10.35 20.7
429 5 6.9 10.35 24.15
430 1 6.9 13.8 6.899999999999999
431 5 6.9 13.8 10.35
432 5 6.9 13.8 24.15
433 5 6.9 17.25 3.450000000000001
434 3 6.9 17.25 6.9
435 5 6.9 17.25 10.35
436 3 6.9 17.25 20.7
437 3 6.9 17.25 27.59999999999999
438 2 6.9 17.25 31.05
439 5 6.9 20.7 3.449999999999999
440 4 6.9 20.7 6.900000000000002
441 1 6.9 20.7 10.35
442 5 6.9 20.7 17.25
443 4 6.9 20.7 24.15
444 1 6.9 24.15 1.915134717478395e-15
445 4 6.9 24.15 3.450000000000001
446 5 6.9 24.15 6.9
447 4 6.9 24.15 10.35
448 5 6.9 24.15 13.8
449 3 6.9 24.15 20.7
450 1 6.9 24.15 27.6
451 3 6.9 24.15 31.05
452 5 6.9 27.6 3.450000000000003
453 3 6.9 27.6 6.899999999999999
454 4 6.9 27.6 17.25
455 4 6.9 27.6 24.15
456 5 6.9 31.05 6.899999999999999
457 2 6.9 31.05 17.25
458 1 6.9 31.05 24.15
459 2 6.9 34.5 3.45
460 4 6.900000000000001 3.45 3.449999999999999
461 5 6.900000000000001 13.8 0
462 2 6.900000000000001 17.25 34.5
463 5 6.900000000000001 34.5 13.8
464 4 6.900000000000001 34.5 17.25
465 4 6.900000000000001 34.5 31.05
466 2 6.900000000000002 3.449999999999999 13.8
467 3 6.900000000000002 3.449999999999999 31.05
468 2 6.900000000000002 13.8 3.449999999999999
469 2 6.900000000000002 13.8 13.8
470 3 6.900000000000002 13.8 17.25
471 1 6.900000000000002 13.8 20.7
472 1 6.900000000000002 13.8 31.05
473 4 6.900000000000002 17.25 13.8
474 2 6.900000000000002 17.25 17.25
475 1 6.900000000000002 20.7 13.8
476 3 6.900000000000002 20.7 31.05
477 4 6.900000000000002 31.05 0
478 4 6.900000000000002 31.05 3.449999999999999
479 3 6.900000000000002 31.05 13.8
480 2 6.900000000000002 31.05 20.7
481 2 6.900000000000002 31.05 31.05
482 3 8.624999999999998 15.525 25.875
483 3 8.624999999999998 18.975 22.425
484 3 8.624999999999998 22.425 18.975
485 1 8.624999999999998 22.425 25.87500000000001
486 1 8.624999999999998 25.875 15.52500000000001
487 3 8.624999999999998 25.875 22.425
488 2 8.625 1.725000000000001 5.175000000000001
489 5 8.625 1.725000000000001 8.625
490 3 8.625 1.725000000000001 18.975
491 2 8.625 1.725000000000001 22.425
492 3 8.625 1.725000000000001 25.875
493 4 8.625 5.175 1.725
494 5 8.625 5.175000000000001 5.175000000000001
495 3 8.625 5.175000000000001 8.625
496 3 8.625 5.175000000000001 15.525
497 5 8.625 5.175000000000001 18.975
498 2 8.625 5.175000000000001 22.425
499 1 8.625 5.175000000000001 25.875
500 3 8.625 8.625 1.725000000000001
501 4 8.625 8.625 5.175000000000001
502 4 8.625 8.625 8.625
503 1 8.625 8.625 12.075
504 4 8.625 8.625 15.525
505 4 8.625 8.625 18.975
506 2 8.625 8.625 22.425
507 2 8.625 8.625 25.875
508 2 8.625 8.625 29.325
509 4 8.625 8.625 32.77500000000001
510 2 8.625 12.075 8.625
511 1 8.625 12.075 25.875
512 1 8.625 12.075 29.325
513 4 8.625 15.525 5.174999999999999
514 1 8.625 15.525 8.625000000000002
515 3 8.625 15.525 22.425
516 2 8.625 18.975 1.725000000000001
517 2 8.625 18.975 5.175000000000001
518 2 8.625 18.975 8.625
519 1 8.625 18.975 18.975
520 1 8.625 18.975 25.875
521 3 8.625 18.975 29.325
522 3 8.625 22.425 1.725
523 5 8.625 22.425 5.175000000000002
524 1 8.625 22.425 8.624999999999998
525 3 8.625 22.425 15.525
526 3 8.625 22.425 22.425
527 3 8.625 25.875 1.725000000000001
528 1 8.625 25.875 5.175000000000001
529 2 8.625 25.875 8.625
530 4 8.625 25.875 12.075
531 3 8.625 25.875 18.975
532 4 8.625 25.875 25.875
533 3 8.625 25.875 29.325
534 3 8.625 25.875 32.77500000000001
535 4 8.625 29.325 8.625
536 2 8.625 29.325 12.075
537 4 8.625 29.325 18.975
538 4 8.625 29.325 25.875
539 4 8.625 29.325 29.325
540 3 8.625 32.77500000000001 8.625
541 5 8.625 32.77500000000001 25.875
542 4 8.625000000000002 1.725 12.075
543 2 8.625000000000002 1.725 15.525
544 1 8.625000000000002 1.725 29.325
545 5 8.625000000000002 1.725 1.725
546 2 8.625000000000002 5.174999999999999 12.075
547 5 8.625000000000002 5.174999999999999 29.325
548 1 8.625000000000002 5.174999999999999 32.77500000000001
549 3 8.625000000000002 12.075 1.725
550 3 8.625000000000002 12.075 5.174999999999999
551 1 8.625000000000002 12.075 12.075
552 2 8.625000000000002 12.075 15.525
553 4 8.625000000000002 12.075 18.975
554 2 8.625000000000002 12.075 22.425
555 3 8.625000000000002 15.525 1.725
556 1 8.625000000000002 15.525 12.075
557 4 8.625000000000002 15.525 15.525
558 2 8.625000000000002 15.525 18.975
559 2 8.625000000000002 15.525 29.325
560 4 8.625000000000002 15.525 32.77500000000001
561 1 8.625000000000002 18.975 12.075
562 1 8.625000000000002 18.975 15.525
563 1 8.625000000000002 22.425 12.075
564 2 8.625000000000002 22.425 29.325
565 4 8.625000000000002 22.425 32.77500000000001
566 2 8.625000000000002 29.325 1.725000000000001
567 4 8.625000000000002 29.325 5.174999999999997
568 5 8.625000000000002 29.325 15.525
569 1 8.625000000000002 29.325 22.425
570 3 8.625000000000002 32.77500000000001 5.174999999999997
571 5 8.625000000000002 32.77500000000001 15.525
572 4 8.625000000000002 32.77500000000001 22.425
573 2 8.625000000000004 1.724999999999998 32.77500000000001
574 5 8.625000000000004 12.075 32.775
575 4 8.625000000000004 18.975 32.77500000000001
576 3 8.625000000000004 29.325 32.775
577 5 8.625000000000004 32.77500000000001 1.724999999999998
578 4 8.625000000000004 32.77500000000001 12.075
579 1 8.625000000000004 32.77500000000001 18.97499999999999
580 1 8.625000000000004 32.77500000000001 29.325
581 2 8.625000000000004 32.77500000000001 32.77500000000001
582 1 10.35 17.25 24.15
583 5 10.35 20.7 20.7
584 2 10.35 24.15 17.25
585 1 10.35 24.15 24.15000000000001
586 1 10.35 1.915134717478395e-15 20.7
587 5 10.35 1.915134717478395e-15 24.15
588 3 10.35 3.450000000000001 6.9
589 1 10.35 3.450000000000001 17.25
590 4 10.35 3.450000000000001 20.7
591 1 10.35 3.450000000000001 24.15
592 5 10.35 6.9 3.450000000000001
593 1 10.35 6.9 6.9
594 5 10.35 6.9 13.8
595 4 10.35 6.9 17.25
596 1 10.35 6.9 20.7
597 4 10.35 6.9 24.15
598 2 10.35 13.8 6.9
599 1 10.35 13.8 24.15
600 5 10.35 13.8 27.6
601 3 10.35 17.25 3.449999999999999
602 1 10.35 17.25 6.900000000000002
603 1 10.35 17.25 20.7
604 4 10.35 20.7 1.915134717478395e-15
605 3 10.35 20.7 3.450000000000001
606 2 10.35 20.7 6.9
607 2 10.35 20.7 17.25
608 2 10.35 20.7 24.15
609 1 10.35 20.7 27.6
610 2 10.35 24.15 0
611 1 10.35 24.15 3.450000000000003
612 5 10.35 24.15 6.899999999999999
613 4 10.35 24.15 13.8
614 4 10.35 24.15 20.7
615 2 10.35 27.6 13.8
616 2 10.35 27.6 20.7
617 3 10.35 0 0
618 3 10.35 0 3.449999999999999
619 5 10.35 0 10.35
620 1 10.35 0 13.8
621 4 10.35 0 17.25
622 3 10.35 0 27.6
623 3 10.35 9.575673587391975e-16 6.899999999999999
624 1 10.35 3.449999999999999 10.35
625 5 10.35 3.449999999999999 13.8
626 5 10.35 3.449999999999999 27.6
627 3 10.35 3.45 0
628 5 10.35 3.45 3.450000000000001
629 1 10.35 6.899999999999999 10.35
630 2 10.35 6.899999999999999 27.6
631 3 10.35 6.899999999999999 31.05
632 1 10.35 6.899999999999999 0
633 2 10.35 10.35 0
634 3 10.35 10.35 3.449999999999999
635 4 10.35 10.35 6.899999999999999
636 4 10.35 10.35 10.35
637 4 10.35 10.35 13.8
638 5 10.35 10.35 17.25
639 2 10.35 10.35 20.7
640 4 10.35 10.35 24.15
641 1 10.35 10.35 27.6
642 3 10.35 10.35 31.05
643 3 10.35 13.8 0
644 4 10.35 13.8 3.449999999999999
645 5 10.35 13.8 10.35
646 3 10.35 13.8 13.8
647 5 10.35 13.8 17.25
648 1 10.35 13.8 20.7
649 1 10.35 17.25 0
650 1 10.35 17.25 10.35
651 5 10.35 17.25 13.8
652 2 10.35 17.25 17.25
653 3 10.35 17.25 27.6
654 2 10.35 17.25 31.05000000000001
655 5 10.35 20.7 10.35
656 4 10.35 20.7 13.8
657 4 10.35 24.15 10.35
658 4 10.35 24.15 27.6
659 4 10.35 24.15 31.05
660 3 10.35 27.6 0
661 3 10.35 27.6 3.449999999999999
662 1 10.35 27.6 6.899999999999999
663 5 10.35 27.6 10.35
664 2 10.35 27.6 17.25
665 2 10.35 27.6 24.15
666 1 10.35 27.6 27.6
667 4 10.35 27.6 31.05
668 4 10.35 31.05 6.899999999999999
669 4 10.35 31.05 10.35
670 3 10.35 31.05 17.25
671 1 10.35 31.05 24.15
672 2 10.35 31.05 27.6
673 5 10.35 3.449999999999998 31.05
674 4 10.35 13.8 31.05
675 5 10.35 20.7 31.05
676 2 10.35 31.05 0
677 2 10.35 31.05 3.449999999999995
678 2 10.35 31.05 13.8
679 1 10.35 31.05 20.7
680 3 10.35 34.5 31.05
681 3 10.35 31.05 31.05
682 5 12.075 18.975 22.425
683 4 12.075 22.425 18.975
684 3 12.075 1.725000000000001 5.174999999999999
685 5 12.075 1.725000000000001 18.975
686 3 12.075 1.725000000000001 22.425
687 3 12.075 5.175 1.725000000000001
688 1 12.075 5.175000000000001 5.175000000000001
689 5 12.075 5.175000000000001 15.525
690 5 12.075 5.175000000000001 18.975
691 1 12.075 5.175000000000001 22.425
692 1 12.075 5.175000000000001 32.77500000000001
693 2 12.075 8.625000000000004 32.775
694 3 12.075 15.525 5.175000000000001
695 3 12.075 15.525 22.425
696 3 12.075 15.525 25.875
697 4 12.075 15.525 32.77500000000001
698 4 12.075 18.975 1.725
699 1 12.075 18.975 5.175000000000002
700 5 12.075 18.975 18.975
701 1 12.075 22.425 1.725000000000001
702 4 12.075 22.425 5.175000000000001
703 1 12.075 22.425 15.525
704 5 12.075 22.425 22.425
705 2 12.075 22.425 25.875
706 4 12.075 22.425 32.77500000000001
707 1 12.075 25.875 15.525
708 3 12.075 25.875 22.425
709 5 12.075 25.875 32.775
710 4 12.075 32.77500000000001 5.175000000000001
711 2 12.075 32.77500000000001 8.625000000000004
712 2 12.075 32.77500000000001 15.525
713 3 12.075 32.77500000000001 22.425
714 2 12.075 32.77500000000001 25.875
715 4 12.075 32.77500000000001 32.77500000000001
716 4 12.075 1.725 1.725
717 3 12.075 1.725 8.625000000000002
718 1 12.075 1.725 12.075
719 1 12.075 1.725 15.525
720 2 12.075 1.725 25.875
721 2 12.075 1.725 32.775
722 3 12.075 5.174999999999999 8.625
723 5 12.075 5.174999999999999 12.075
724 3 12.075 5.174999999999999 25.875
725 4 12.075 8.625000000000002 1.725
726 4 12.075 8.625000000000002 5.174999999999999
727 5 12.075 8.625000000000002 12.075
728 1 12.075 8.625000000000002 15.525
729 2 12.075 8.625000000000002 18.975
730 5 12.075 8.625000000000002 22.425
731 3 12.075 12.075 1.725
732 5 12.075 12.075 5.174999999999999
733 2 12.075 12.075 8.625000000000002
734 1 12.075 12.075 12.075
735 2 12.075 12.075 15.525
736 4 12.075 12.075 18.975
737 2 12.075 12.075 22.425
738 4 12.075 12.075 25.875
739 2 12.075 12.075 29.325
740 2 12.075 12.075 32.775
741 5 12.075 15.525 1.725
742 5 12.075 15.525 8.625000000000004
743 3 12.075 15.525 12.075
744 5 12.075 15.525 15.525
745 2 12.075 15.525 18.975
746 4 12.075 18.975 8.625000000000002
747 4 12.075 18.975 12.075
748 1 12.075 18.975 15.525
749 4 12.075 18.975 25.87500000000001
750 5 12.075 18.975 29.32500000000001
751 2 12.075 18.975 32.775
752 5 12.075 22.425 8.625
753 3 12.075 22.425 12.075
754 2 12.075 25.875 1.725000000000001
755 4 12.075 25.875 5.174999999999997
756 3 12.075 25.875 12.075
757 1 12.075 25.875 18.975
758 5 12.075 29.325 12.075
759 2 12.075 29.325 18.975
760 2 12.075 32.775 1.724999999999998
761 4 12.075 32.775 12.075
762 3 12.075 32.775 18.975
763 3 12.075 1.724999999999998 29.325
764 3 12.075 5.174999999999997 29.325
765 3 12.075 8.625 8.625
766 4 12.075 8.625 25.875
767 5 12.075 8.625 29.325
768 4 12.075 15.525 29.325
769 2 12.075 22.425 29.325
770 1 12.075 25.875 8.625
771 4 12.075 25.875 25.875
772 1 12.075 25.875 29.325
773 2 12.075 29.325 1.724999999999998
774 3 12.075 29.325 5.174999999999997
775 3 12.075 29.325 8.625
776 3 12.075 29.325 15.525
777 2 12.075 29.325 22.425
778 1 12.075 29.325 25.875
779 2 12.075 29.325 29.325
780 5 12.075 29.325 32.775
781 2 12.075 32.775 29.325
782 2 13.8 20.7 20.7
783 3 13.8 1.915134717478395e-15 20.7
784 1 13.8 3.450000000000001 17.25
785 4 13.8 3.450000000000001 20.7
786 4 13.8 10.35 31.05
787 5 13.8 17.25 3.450000000000001
788 4 13.8 17.25 20.7
789 4 13.8 17.25 24.15000000000001
790 5 13.8 17.25 31.05
791 1 13.8 20.7 0
792 1 13.8 20.7 3.450000000000003
793 1 13.8 20.7 17.25
794 1 13.8 24.15000000000001 17.25
795 5 13.8 31.05 10.35
796 3 13.8 31.05 17.25
797 1 13.8 0 0
798 5 13.8 0 3.449999999999999
799 5 13.8 0 10.35
800 2 13.8 0 13.8
801 2 13.8 0 17.25
802 2 13.8 0 24.15000000000001
803 5 13.8 0 31.05
804 3 13.8 3.449999999999999 0
805 1 13.8 3.449999999999999 6.900000000000002
806 4 13.8 3.449999999999999 10.35
807 5 13.8 3.449999999999999 13.8
808 4 13.8 3.449999999999999 24.15
809 4 13.8 3.449999999999999 31.05
810 3 13.8 3.45 3.449999999999999
811 2 13.8 6.900000000000001 0
812 5 13.8 6.900000000000002 3.449999999999999
813 5 13.8 6.900000000000002 13.8
814 2 13.8 6.900000000000002 17.25
815 1 13.8 6.900000000000002 20.7
816 2 13.8 6.900000000000002 31.05
817 4 13.8 10.35 0
818 3 13.8 10.35 3.449999999999999
819 1 13.8 10.35 10.35
820 2 13.8 10.35 13.8
821 4 13.8 10.35 17.25
822 1 13.8 10.35 20.7
823 3 13.8 13.8 0
824 4 13.8 13.8 3.449999999999999
825 4 13.8 13.8 6.900000000000002
826 4 13.8 13.8 10.35
827 4 13.8 13.8 13.8
828 5 13.8 13.8 17.25
829 5 13.8 13.8 20.7
830 1 13.8 13.8 24.15
831 2 13.8 13.8 27.6
832 2 13.8 13.8 31.05
833 4 13.8 17.25 0
834 5 13.8 17.25 6.900000000000004
835 3 13.8 17.25 10.35
836 3 13.8 17.25 13.8
837 2 13.8 17.25 17.25
838 5 13.8 20.7 6.900000000000002
839 4 13.8 20.7 10.35
840 5 13.8 20.7 13.8
841 3 13.8 20.7 24.15000000000001
842 1 13.8 20.7 27.60000000000001
843 4 13.8 20.7 31.05
844 1 13.8 24.15 0
845 2 13.8 24.15 3.449999999999999
846 5 13.8 24.15 13.8
847 2 13.8 24.15 20.7
848 1 13.8 24.15 24.15
849 4 13.8 24.15 31.05
850 2 13.8 27.6 13.8
851 4 13.8 27.6 20.7
852 5 13.8 27.6 31.05
853 1 13.8 31.05 0
854 2 13.8 31.05 3.449999999999999
855 5 13.8 31.05 6.900000000000002
856 1 13.8 31.05 13.8
857 1 13.8 31.05 20.7
858 4 13.8 31.05 24.15
859 4 13.8 31.05 27.6
860 1 13.8 31.05 31.05
861 3 13.8 34.5 6.9
862 5 13.8 3.449999999999998 27.6
863 1 13.8 6.9 6.899999999999999
864 4 13.8 6.9 10.35
865 2 13.8 6.9 24.15
866 5 13.8 10.35 6.9
867 5 13.8 10.35 24.15
868 3 13.8 10.35 27.6
869 2 13.8 17.25 27.6
870 5 13.8 24.15 6.899999999999999
871 2 13.8 24.15 10.35
872 1 13.8 27.6 0
873 3 13.8 27.6 3.449999999999995
874 2 13.8 27.6 10.35
875 1 13.8 27.6 17.25
876 4 13.8 34.5 27.6
877 2 13.8 6.899999999999999 27.6
878 4 13.8 24.15 27.6
879 5 13.8 27.6 6.899999999999999
880 5 13.8 27.6 24.15
881 2 13.8 27.6 27.6
882 5 15.525 1.725000000000001 18.975
883 3 15.525 12.075 29.325
884 1 15.525 18.975 1.725000000000001
885 4 15.525 18.975 18.975
886 2 15.525 18.975 22.425
887 4 15.525 18.975 29.325
888 5 15.525 22.425 18.975
889 4 15.525 29.325 12.075
890 4 15.525 29.325 18.975
891 1 15.525 29.325 29.325
892 2 15.525 1.725 1.725
893 5 15.525 1.725 8.625
894 5 15.525 1.725 12.075
895 3 15.525 1.725 15.525
896 5 15.525 1.725 22.425
897 2 15.525 1.725 29.325
898 5 15.525 5.175000000000002 15.525
899 5 15.525 5.175000000000002 18.975
900 3 15.525 8.625000000000002 1.725
901 2 15.525 8.625000000000002 12.075
902 3 15.525 8.625000000000002 15.525
903 2 15.525 8.625000000000002 18.975
904 1 15.525 8.625000000000002 29.325
905 5 15.525 8.625000000000002 32.77500000000001
906 4 15.525 12.075 1.725
907 2 15.525 12.075 8.625000000000004
908 3 15.525 12.075 12.075
909 4 15.525 12.075 15.525
910 3 15.525 12.075 18.975
911 4 15.525 15.525 1.725
912 3 15.525 15.525 5.175000000000002
913 4 15.525 15.525 8.625000000000002
914 5 15.525 15.525 12.075
915 3 15.525 15.525 15.525
916 5 15.525 15.525 18.975
917 3 15.525 15.525 22.425
918 2 15.525 15.525 25.87500000000001
919 5 15.525 15.525 29.325
920 2 15.525 15.525 32.77500000000001
921 2 15.525 18.975 5.175000000000004
922 1 15.525 18.975 8.625
923 2 15.525 18.975 12.075
924 1 15.525 18.975 15.525
925 3 15.525 22.425 1.725000000000001
926 4 15.525 22.425 15.525
927 3 15.525 25.87500000000001 15.525
928 4 15.525 29.325 1.724999999999998
929 5 15.525 29.325 8.625000000000004
930 2 15.525 29.325 15.525
931 4 15.525 32.77500000000001 8.625000000000004
932 1 15.525 32.77500000000001 15.525
933 5 15.525 1.724999999999998 25.875
934 1 15.525 1.724999999999998 32.77500000000001
935 1 15.525 1.724999999999999 5.175000000000001
936 2 15.525 5.175000000000001 5.175000000000001
937 1 15.525 5.175000000000001 8.625
938 1 15.525 5.175000000000001 12.075
939 4 15.525 5.175000000000001 22.425
940 2 15.525 5.175000000000001 29.325
941 4 15.525 5.175000000000001 32.775
942 4 15.525 5.175000000000002 1.724999999999998
943 4 15.525 8.625 5.174999999999999
944 3 15.525 8.625 8.625000000000002
945 1 15.525 8.625 22.425
946 4 15.525 12.075 5.175000000000001
947 3 15.525 12.075 22.425
948 3 15.525 12.075 25.875
949 4 15.525 12.075 32.77500000000001
950 5 15.525 18.975 25.875
951 1 15.525 18.975 32.77500000000001
952 2 15.525 22.425 5.175000000000001
953 2 15.525 22.425 8.625
954 4 15.525 22.425 12.075
955 4 15.525 22.425 22.425
956 5 15.525 22.425 25.87500000000001
957 3 15.525 22.425 29.325
958 2 15.525 22.425 32.775
959 3 15.525 25.875 1.724999999999998
960 1 15.525 25.875 12.075
961 2 15.525 25.875 18.97499999999999
962 1 15.525 25.875 22.425
963 3 15.525 25.875 29.325
964 4 15.525 25.875 32.77500000000001
965 2 15.525 29.325 5.175000000000001
966 4 15.525 29.325 22.425
967 5 15.525 29.325 25.875
968 2 15.525 29.325 32.77500000000001
969 4 15.525 32.77500000000001 1.724999999999998
970 1 15.525 32.77500000000001 5.175000000000001
971 1 15.525 32.77500000000001 12.075
972 5 15.525 32.77500000000001 18.975
973 4 15.525 32.77500000000001 22.425
974 4 15.525 32.77500000000001 25.875
975 5 15.525 32.77500000000001 29.325
976 5 15.525 32.77500000000001 32.77500000000001
977 3 15.525 5.174999999999999 25.875
978 2 15.525 8.624999999999998 25.875
979 4 15.525 25.875 5.174999999999997
980 2 15.525 25.875 8.625
981 1 15.52500000000001 25.875 25.875
982 2 17.25 13.8 27.6
983 3 17.25 27.6 13.8
984 5 17.25 0 0
985 2 17.25 0 6.900000000000002
986 4 17.25 0 10.35
987 4 17.25 0 13.8
988 4 17.25 0 17.25
989 4 17.25 0 20.7
990 1 17.25 0 27.6
991 5 17.25 3.450000000000001 6.899999999999999
992 2 17.25 3.450000000000001 10.35
993 2 17.25 3.450000000000001 13.8
994 1 17.25 3.450000000000001 20.7
995 3 17.25 3.450000000000001 27.6
996 2 17.25 3.450000000000001 34.5
997 1 17.25 3.450000000000003 17.25
998 3 17.25 6.9 3.450000000000001
999 3 17.25 6.9 6.9
1000 1 17.25 6.9 10.35
1001 3 17.25 6.9 20.7
1002 4 17.25 6.9 27.59999999999999
1003 1 17.25 6.9 31.05
1004 1 17.25 6.900000000000001 34.5
1005 3 17.25 6.900000000000002 13.8
1006 3 17.25 6.900000000000002 17.25
1007 1 17.25 10.35 3.449999999999999
1008 1 17.25 10.35 6.900000000000002
1009 4 17.25 10.35 20.7
1010 2 17.25 10.35 0
1011 3 17.25 10.35 10.35
1012 3 17.25 10.35 13.8
1013 1 17.25 10.35 17.25
1014 4 17.25 10.35 27.6
1015 3 17.25 10.35 31.05000000000001
1016 1 17.25 13.8 3.450000000000001
1017 5 17.25 13.8 20.7
1018 4 17.25 13.8 24.15000000000001
1019 4 17.25 13.8 31.05
1020 5 17.25 13.8 0
1021 2 17.25 13.8 6.900000000000004
1022 2 17.25 13.8 10.35
1023 3 17.25 13.8 13.8
1024 4 17.25 13.8 17.25
1025 3 17.25 17.25 0
1026 4 17.25 17.25 3.450000000000003
1027 4 17.25 17.25 6.900000000000002
1028 3 17.25 17.25 10.35
1029 1 17.25 17.25 13.8
1030 4 17.25 17.25 17.25
1031 4 17.25 17.25 20.7
1032 5 17.25 17.25 24.15000000000001
1033 1 17.25 17.25 27.6
1034 5 17.25 17.25 31.05
1035 4 17.25 20.7 0
1036 2 17.25 20.7 3.450000000000003
1037 4 17.25 20.7 6.899999999999999
1038 2 17.25 20.7 10.35
1039 2 17.25 20.7 13.8
1040 5 17.25 20.7 17.25
1041 5 17.25 20.7 20.7
1042 2 17.25 20.7 27.6
1043 1 17.25 24.15000000000001 0
1044 2 17.25 24.15000000000001 13.8
1045 5 17.25 24.15000000000001 17.25
1046 5 17.25 27.6 0
1047 4 17.25 27.6 3.449999999999999
1048 5 17.25 27.6 6.900000000000002
1049 4 17.25 27.6 10.35
1050 3 17.25 27.6 17.25
1051 5 17.25 27.6 20.7
1052 4 17.25 27.6 27.6
1053 4 17.25 27.6 31.05000000000001
1054 5 17.25 31.05 6.900000000000002
1055 2 17.25 31.05 10.35
1056 2 17.25 31.05 13.8
1057 5 17.25 31.05 17.25
1058 1 17.25 31.05 27.6
1059 4 17.25 31.05 34.49999999999999
1060 2 17.25 34.5 3.450000000000001
1061 4 17.25 34.5 24.15000000000001
1062 4 17.25 34.5 31.05
1063 3 17.25 3.449999999999999 24.15
1064 1 17.25 3.449999999999999 31.05
1065 1 17.25 3.45 3.449999999999999
1066 4 17.25 6.899999999999999 24.15
1067 4 17.25 10.35 24.15
1068 4 17.25 20.7 24.15
1069 3 17.25 20.7 31.05
1070 2 17.25 24.15 3.449999999999999
1071 1 17.25 24.15 6.899999999999999
1072 3 17.25 24.15 10.35
1073 4 17.25 24.15 20.7
1074 4 17.25 24.15 24.15000000000001
1075 2 17.25 24.15 27.59999999999999
1076 1 17.25 24.15 31.05
1077 2 17.25 27.6 24.15
1078 4 17.25 31.05 3.449999999999999
1079 5 17.25 31.05 20.7
1080 5 17.25 31.05 24.15
1081 2 17.25 31.05 31.05
1082 1 18.975 8.625000000000004 32.77500000000001
1083 4 18.975 15.525 25.875
1084 4 18.975 15.525 32.77500000000001
1085 5 18.975 25.875 15.525
1086 2 18.975 25.875 32.77500000000001
1087 3 18.975 32.77500000000001 8.625
1088 3 18.975 32.77500000000001 15.52500000000001
1089 1 18.975 32.77500000000001 25.875
1090 1 18.975 32.77500000000001 32.77500000000001
1091 5 18.975 1.725 1.725
1092 2 18.975 1.725 22.425
1093 3 18.975 1.725 29.325
1094 4 18.975 1.725000000000001 5.175000000000001
1095 2 18.975 1.725000000000001 8.625
1096 4 18.975 1.725000000000001 12.075
1097 1 18.975 1.725000000000001 15.525
1098 1 18.975 1.725000000000001 18.975
1099 3 18.975 1.725000000000001 25.875
1100 3 18.975 1.725000000000001 32.775
1101 2 18.975 5.174999999999999 22.425
1102 3 18.975 5.174999999999999 29.325
1103 5 18.975 5.175 1.725
1104 2 18.975 5.175000000000001 5.174999999999999
1105 3 18.975 5.175000000000001 8.625000000000002
1106 1 18.975 5.175000000000001 12.075
1107 4 18.975 5.175000000000001 18.975
1108 4 18.975 5.175000000000001 25.875
1109 3 18.975 5.175000000000002 15.525
1110 1 18.975 5.175000000000002 32.775
1111 4 18.975 8.624999999999998 22.425
1112 5 18.975 8.625 1.725000000000001
1113 1 18.975 8.625 5.175000000000001
1114 2 18.975 8.625 8.625
1115 5 18.975 8.625 18.975
1116 2 18.975 8.625 25.875
1117 1 18.975 8.625 29.325
1118 2 18.975 8.625000000000002 12.075
1119 5 18.975 8.625000000000002 15.525
1120 1 18.975 12.075 22.425
1121 5 18.975 12.075 1.725
1122 4 18.975 12.075 5.175000000000002
1123 5 18.975 12.075 18.975
1124 5 18.975 12.075 8.625000000000002
1125 3 18.975 12.075 12.075
1126 1 18.975 12.075 15.525
1127 4 18.975 12.075 25.87500000000001
1128 1 18.975 12.075 29.32500000000001
1129 1 18.975 12.075 32.775
1130 3 18.975 15.525 1.725000000000001
1131 1 18.975 15.525 18.975
1132 2 18.975 15.525 22.425
1133 1 18.975 15.525 29.325
1134 2 18.975 15.525 5.175000000000004
1135 5 18.975 15.525 8.625
1136 2 18.975 15.525 12.075
1137 4 18.975 15.525 15.525
1138 4 18.975 18.975 1.725000000000001
1139 4 18.975 18.975 5.175000000000001
1140 3 18.975 18.975 8.625
1141 1 18.975 18.975 12.075
1142 1 18.975 18.975 15.525
1143 1 18.975 18.975 18.975
1144 5 18.975 18.975 22.425
1145 2 18.975 18.975 25.875
1146 3 18.975 18.975 29.325
1147 3 18.975 18.975 32.775
1148 2 18.975 22.425 1.725000000000001
1149 4 18.975 22.425 5.174999999999997
1150 5 18.975 22.425 8.625
1151 2 18.975 22.425 12.075
1152 3 18.975 22.425 15.525
1153 5 18.975 22.425 18.975
1154 2 18.975 22.425 25.875
1155 1 18.975 22.425 32.775
1156 5 18.975 25.875 1.725000000000001
1157 2 18.975 25.875 5.175000000000001
1158 4 18.975 25.875 8.625
1159 3 18.975 25.875 12.075
1160 3 18.975 25.875 18.975
1161 2 18.975 25.875 22.42500000000001
1162 5 18.975 25.875 25.875
1163 2 18.975 25.875 29.325
1164 5 18.975 29.325 1.724999999999998
1165 4 18.975 29.325 5.175000000000001
1166 2 18.975 29.325 8.625
1167 1 18.975 29.325 12.075
1168 2 18.975 29.325 15.525
1169 3 18.975 29.325 18.975
1170 3 18.975 29.325 25.875
1171 2 18.975 29.325 29.32500000000001
1172 3 18.975 29.325 32.77499999999999
1173 1 18.975 32.775 1.725000000000001
1174 2 18.975 32.775 5.175000000000004
1175 3 18.975 32.775 12.075
1176 3 18.975 32.775 18.975
1177 5 18.975 32.775 22.425
1178 2 18.975 32.775 29.325
1179 5 18.975 22.425 22.425
1180 1 18.975 22.425 29.325
1181 3 18.975 29.325 22.425
1182 5 20.7 10.35 31.05
1183 2 20.7 31.05 10.35
1184 3 20.7 6.900000000000002 13.8
1185 5 20.7 6.900000000000002 31.05
1186 2 20.7 10.35 10.35
1187 4 20.7 10.35 13.8
1188 5 20.7 13.8 6.900000000000002
1189 5 20.7 13.8 10.35
1190 1 20.7 13.8 13.8
1191 3 20.7 13.8 24.15000000000001
1192 5 20.7 13.8 27.60000000000001
1193 4 20.7 13.8 31.05
1194 1 20.7 17.25 24.15
1195 3 20.7 17.25 31.05
1196 3 20.7 24.15 13.8
1197 2 20.7 24.15 17.25
1198 1 20.7 24.15 24.15
1199 5 20.7 24.15 31.05
1200 4 20.7 27.6 13.8
1201 1 20.7 27.6 31.05
1202 1 20.7 31.05 6.900000000000002
1203 5 20.7 31.05 13.8
1204 1 20.7 31.05 17.25
1205 2 20.7 31.05 24.15000000000001
1206 1 20.7 31.05 27.60000000000001
1207 3 20.7 31.05 31.05
1208 1 20.7 0 0
1209 5 20.7 0 3.449999999999999
1210 2 20.7 0 6.899999999999999
1211 5 20.7 0 17.25
1212 5 20.7 0 20.7
1213 3 20.7 0 27.6
1214 2 20.7 1.915134717478395e-15 10.35
1215 3 20.7 1.915134717478395e-15 13.8
1216 4 20.7 1.915134717478395e-15 24.15
1217 5 20.7 1.915134717478395e-15 31.05
1218 1 20.7 3.449999999999999 0
1219 1 20.7 3.449999999999999 20.7
1220 3 20.7 3.449999999999999 27.6
1221 2 20.7 3.450000000000001 3.450000000000001
1222 5 20.7 3.450000000000001 6.9
1223 2 20.7 3.450000000000001 10.35
1224 1 20.7 3.450000000000001 13.8
1225 1 20.7 3.450000000000001 17.25
1226 3 20.7 3.450000000000001 24.15
1227 3 20.7 3.450000000000001 31.05
1228 2 20.7 6.899999999999999 20.7
1229 2 20.7 6.899999999999999 27.6
1230 2 20.7 6.899999999999999 0
1231 3 20.7 6.9 3.449999999999999
1232 1 20.7 6.9 6.900000000000002
1233 2 20.7 6.9 10.35
1234 2 20.7 6.9 17.25
1235 1 20.7 6.9 24.15
1236 4 20.7 10.35 20.7
1237 5 20.7 10.35 1.915134717478395e-15
1238 4 20.7 10.35 3.450000000000001
1239 3 20.7 10.35 6.9
1240 3 20.7 10.35 17.25
1241 1 20.7 10.35 24.15
1242 3 20.7 10.35 27.6
1243 4 20.7 13.8 20.7
1244 2 20.7 13.8 0
1245 1 20.7 13.8 3.450000000000003
1246 4 20.7 13.8 17.25
1247 5 20.7 17.25 0
1248 2 20.7 17.25 3.450000000000003
1249 1 20.7 17.25 6.899999999999999
1250 3 20.7 17.25 10.35
1251 3 20.7 17.25 13.8
1252 2 20.7 17.25 17.25
1253 5 20.7 17.25 20.7
1254 2 20.7 17.25 27.6
1255 4 20.7 20.7 0
1256 5 20.7 20.7 3.449999999999999
1257 3 20.7 20.7 6.899999999999999
1258 1 20.7 20.7 10.35
1259 5 20.7 20.7 13.8
1260 3 20.7 20.7 17.25
1261 1 20.7 20.7 20.7
1262 3 20.7 20.7 24.15
1263 5 20.7 20.7 27.6
1264 2 20.7 20.7 31.05
1265 4 20.7 24.15 3.83026943495679e-15
1266 3 20.7 24.15 3.449999999999999
1267 4 20.7 24.15 6.900000000000002
1268 4 20.7 24.15 10.35
1269 2 20.7 24.15 20.7
1270 5 20.7 24.15 27.6
1271 5 20.7 27.6 0
1272 2 20.7 27.6 3.449999999999999
1273 2 20.7 27.6 6.899999999999999
1274 5 20.7 27.6 10.35
1275 3 20.7 27.6 17.25
1276 4 20.7 27.6 20.70000000000001
1277 5 20.7 27.6 24.15
1278 3 20.7 27.6 27.6
1279 1 20.7 31.05 0
1280 4 20.7 31.05 3.450000000000003
1281 1 20.7 31.05 20.7
1282 1 22.425 8.625000000000002 12.075
1283 3 22.425 8.625000000000002 29.325
1284 2 22.425 8.625000000000002 32.77500000000001
1285 1 22.425 12.075 8.625
1286 1 22.425 12.075 12.075
1287 4 22.425 12.075 29.325
1288 3 22.425 29.325 8.625
1289 5 22.425 29.325 12.075
1290 1 22.425 29.325 29.325
1291 1 22.425 32.77500000000001 8.625
1292 5 22.425 1.725000000000001 8.625000000000002
1293 4 22.425 1.725000000000001 12.075
1294 2 22.425 1.725000000000001 22.425
1295 3 22.425 1.725000000000001 29.325
1296 4 22.425 5.175000000000001 1.725000000000001
1297 2 22.425 5.175000000000001 5.175000000000001
1298 3 22.425 5.175000000000001 8.625
1299 4 22.425 5.175000000000001 12.075
1300 2 22.425 5.175000000000001 15.525
1301 4 22.425 5.175000000000001 22.425
1302 1 22.425 5.175000000000001 29.325
1303 1 22.425 5.175000000000001 32.77500000000001
1304 2 22.425 8.625 1.725
1305 4 22.425 8.625 5.175000000000002
1306 5 22.425 8.625 8.624999999999998
1307 5 22.425 8.625 15.525
1308 1 22.425 8.625 22.425
1309 1 22.425 12.075 1.725000000000001
1310 2 22.425 12.075 5.175000000000001
1311 4 22.425 12.075 15.525
1312 3 22.425 12.075 22.425
1313 5 22.425 12.075 25.875
1314 1 22.425 12.075 32.77500000000001
1315 5 22.425 15.525 5.175000000000001
1316 1 22.425 15.525 8.625
1317 1 22.425 15.525 12.075
1318 4 22.425 15.525 22.425
1319 1 22.425 15.525 25.87500000000001
1320 2 22.425 15.525 29.325
1321 5 22.425 15.525 32.775
1322 2 22.425 18.975 22.425
1323 2 22.425 18.975 29.325
1324 2 22.425 22.425 1.725000000000001
1325 1 22.425 22.425 5.175000000000001
1326 5 22.425 22.425 8.625
1327 3 22.425 22.425 12.075
1328 3 22.425 22.425 15.525
1329 3 22.425 22.425 18.975
1330 4 22.425 22.425 22.425
1331 5 22.425 22.425 25.875
1332 3 22.425 22.425 29.325
1333 5 22.425 22.425 32.77500000000001
1334 4 22.425 25.875 12.075
1335 1 22.425 25.875 15.525
1336 1 22.425 25.875 22.425
1337 1 22.425 25.875 29.325
1338 5 22.425 25.875 32.77500000000001
1339 3 22.425 29.325 1.725000000000001
1340 5 22.425 29.325 5.175000000000001
1341 1 22.425 29.325 15.52500000000001
1342 3 22.425 29.325 18.97500000000001
1343 5 22.425 29.325 22.425
1344 4 22.425 29.325 25.875
1345 2 22.425 29.325 32.77500000000001
1346 2 22.425 32.77500000000001 5.175000000000001
1347 5 22.425 32.77500000000001 12.075
1348 4 22.425 32.77500000000001 15.525
1349 5 22.425 32.77500000000001 22.425
1350 2 22.425 32.77500000000001 25.87500000000001
1351 5 22.425 32.77500000000001 29.325
1352 1 22.425 32.77500000000001 32.775
1353 3 22.425 1.725 1.725
1354 4 22.425 1.725 5.174999999999999
1355 1 22.425 1.725 15.525
1356 5 22.425 1.725 18.975
1357 2 22.425 1.725 25.875
1358 5 22.425 1.725 32.775
1359 1 22.425 5.174999999999999 18.975
1360 1 22.425 5.174999999999999 25.875
1361 4 22.425 8.624999999999998 18.975
1362 5 22.425 8.624999999999998 25.87500000000001
1363 4 22.425 12.075 18.975
1364 4 22.425 15.525 18.975
1365 4 22.425 15.525 1.725000000000001
1366 2 22.425 15.525 15.525
1367 1 22.425 18.975 1.725000000000001
1368 5 22.425 18.975 5.174999999999997
1369 3 22.425 18.975 8.625
1370 2 22.425 18.975 12.075
1371 2 22.425 18.975 15.525
1372 5 22.425 18.975 18.975
1373 2 22.425 18.975 25.875
1374 5 22.425 18.975 32.775
1375 3 22.425 25.875 1.724999999999998
1376 3 22.425 25.875 5.175000000000001
1377 2 22.425 25.875 8.624999999999996
1378 4 22.425 25.875 18.975
1379 1 22.425 25.875 25.875
1380 3 22.425 32.775 1.725000000000001
1381 2 22.425 32.775 18.975
1382 3 24.15 1.915134717478395e-15 6.9
1383 1 24.15 1.915134717478395e-15 10.35
1384 2 24.15 1.915134717478395e-15 20.7
1385 4 24.15 1.915134717478395e-15 27.59999999999999
1386 1 24.15 3.450000000000001 6.900000000000002
1387 2 24.15 3.450000000000001 10.35
1388 3 24.15 3.450000000000001 20.7
1389 2 24.15 3.450000000000001 27.6
1390 3 24.15 6.9 1.915134717478395e-15
1391 5 24.15 6.9 3.450000000000001
1392 4 24.15 6.9 6.9
1393 5 24.15 6.9 10.35
1394 2 24.15 6.9 13.8
1395 4 24.15 6.9 20.7
1396 3 24.15 6.9 27.6
1397 1 24.15 6.9 31.05
1398 2 24.15 10.35 0
1399 1 24.15 10.35 3.450000000000003
1400 3 24.15 10.35 6.899999999999999
1401 4 24.15 10.35 13.8
1402 5 24.15 10.35 20.7
1403 2 24.15 10.35 10.35
1404 2 24.15 10.35 27.6
1405 2 24.15 10.35 31.05
1406 1 24.15 13.8 6.899999999999999
1407 5 24.15 13.8 10.35
1408 3 24.15 13.8 27.6
1409 1 24.15 20.7 3.83026943495679e-15
1410 1 24.15 20.7 3.449999999999999
1411 3 24.15 20.7 6.900000000000002
1412 1 24.15 20.7 10.35
1413 3 24.15 20.7 20.7
1414 2 24.15 20.7 27.6
1415 3 24.15 27.6 0
1416 1 24.15 27.6 3.450000000000003
1417 3 24.15 27.6 6.899999999999999
1418 3 24.15 27.6 10.35
1419 1 24.15 27.6 13.8
1420 5 24.15 27.6 20.7
1421 5 24.15 27.6 27.6
1422 1 24.15 27.6 31.05
1423 4 24.15 31.05 6.899999999999999
1424 3 24.15 31.05 10.35
1425 3 24.15 31.05 27.6
1426 2 24.15 0 0
1427 5 24.15 0 3.449999999999999
1428 4 24.15 0 13.8
1429 2 24.15 0 24.15
1430 5 24.15 0 31.05
1431 2 24.15 3.449999999999999 0
1432 2 24.15 3.449999999999999 3.449999999999999
1433 5 24.15 3.449999999999999 13.8
1434 5 24.15 3.449999999999999 17.25
1435 3 24.15 3.449999999999999 24.15
1436 2 24.15 3.449999999999999 31.05
1437 4 24.15 6.899999999999999 17.25000000000001
1438 2 24.15 6.899999999999999 24.15000000000001
1439 5 24.15 10.35 17.25
1440 4 24.15 10.35 24.15000000000001
1441 5 24.15 13.8 0
1442 2 24.15 13.8 3.449999999999999
1443 5 24.15 13.8 13.8
1444 1 24.15 13.8 20.7
1445 3 24.15 13.8 24.15
1446 4 24.15 13.8 31.05
1447 4 24.15 17.25 3.449999999999999
1448 3 24.15 17.25 6.899999999999999
1449 4 24.15 17.25 10.35
1450 4 24.15 17.25 20.7
1451 2 24.15 17.25 24.15000000000001
1452 2 24.15 17.25 27.59999999999999
1453 1 24.15 17.25 31.05
1454 1 24.15 20.7 13.8
1455 2 24.15 20.7 17.25
1456 2 24.15 20.7 24.15
1457 5 24.15 20.7 31.05
1458 3 24.15 24.15 0
1459 2 24.15 24.15 3.449999999999999
1460 2 24.15 24.15 6.899999999999999
1461 4 24.15 24.15 10.35
1462 4 24.15 24.15 13.8
1463 5 24.15 24.15 17.25
1464 4 24.15 24.15 20.7
1465 5 24.15 24.15 24.15
1466 1 24.15 24.15 27.6
1467 3 24.15 24.15 31.05
1468 2 24.15 27.6 17.25
1469 1 24.15 27.6 24.15000000000001
1470 5 24.15 31.05 0
1471 2 24.15 31.05 3.449999999999999
1472 2 24.15 31.05 13.8
1473 1 24.15 31.05 17.25000000000001
1474 4 24.15 31.05 20.7
1475 4 24.15 31.05 24.15
1476 4 24.15 31.05 31.05
1477 3 24.15000000000001 13.8 17.25
1478 5 24.15000000000001 17.25 0
1479 5 24.15000000000001 17.25 13.8
1480 5 24.15000000000001 17.25 17.25
1481 5 24.15000000000001 34.5 17.25
1482 3 25.875 1.725 1.725
1483 4 25.875 1.725 12.075
1484 1 25.875 1.725 22.425
1485 1 25.875 1.725 29.325
1486 4 25.875 1.725000000000001 5.175000000000001
1487 5 25.875 1.725000000000001 8.625
1488 5 25.875 1.725000000000001 18.975
1489 5 25.875 1.725000000000001 25.875
1490 2 25.875 5.174999999999999 1.725
1491 3 25.875 5.174999999999999 12.075
1492 1 25.875 5.174999999999999 15.525
1493 2 25.875 5.174999999999999 22.425
1494 3 25.875 5.174999999999999 29.325
1495 1 25.875 5.174999999999999 32.77500000000001
1496 2 25.875 5.175000000000001 5.175000000000002
1497 5 25.875 5.175000000000001 8.624999999999998
1498 5 25.875 5.175000000000001 18.975
1499 3 25.875 5.175000000000001 25.875
1500 1 25.875 8.624999999999998 15.52500000000001
1501 4 25.875 8.624999999999998 22.425
1502 5 25.875 8.625 1.725000000000001
1503 1 25.875 8.625 5.175000000000001
1504 5 25.875 8.625 8.625
1505 2 25.875 8.625 12.075
1506 4 25.875 8.625 18.975
1507 5 25.875 8.625 25.875
1508 1 25.875 8.625 29.325
1509 2 25.875 8.625 32.77500000000001
1510 4 25.875 12.075 1.725000000000001
1511 1 25.875 12.075 5.174999999999997
1512 2 25.875 12.075 12.075
1513 2 25.875 12.075 18.975
1514 5 25.875 12.075 8.625
1515 5 25.875 12.075 25.875
1516 4 25.875 12.075 29.325
1517 5 25.875 15.525 5.174999999999997
1518 5 25.875 15.525 8.625
1519 5 25.875 15.52500000000001 25.875
1520 2 25.875 18.975 1.725000000000001
1521 1 25.875 18.975 5.175000000000001
1522 5 25.875 18.975 8.625
1523 1 25.875 18.975 12.075
1524 4 25.875 18.975 18.975
1525 5 25.875 18.975 22.42500000000001
1526 4 25.875 18.975 25.875
1527 1 25.875 18.975 29.325
1528 5 25.875 22.425 1.724999999999998
1529 1 25.875 22.425 5.175000000000001
1530 4 25.875 22.425 8.624999999999996
1531 1 25.875 22.425 18.975
1532 4 25.875 22.425 25.875
1533 2 25.875 25.875 1.725000000000001
1534 5 25.875 25.875 5.175000000000001
1535 5 25.875 25.875 8.625
1536 2 25.875 25.875 12.075
1537 2 25.875 25.875 15.52500000000001
1538 4 25.875 25.875 18.975
1539 3 25.875 25.875 22.425
1540 2 25.875 25.875 25.875
1541 1 25.875 25.875 29.325
1542 5 25.875 25.875 32.77500000000001
1543 5 25.875 29.325 1.725000000000001
1544 5 25.875 29.325 5.174999999999997
1545 1 25.875 29.325 8.625
1546 4 25.875 29.325 12.075
1547 3 25.875 29.325 18.975
1548 3 25.875 29.325 25.875
1549 5 25.875 29.325 29.325
1550 3 25.875 32.77500000000001 5.174999999999997
1551 1 25.875 32.77500000000001 8.625
1552 3 25.875 32.77500000000001 25.875
1553 1 25.875 1.724999999999998 15.525
1554 4 25.875 1.724999999999998 32.77500000000001
1555 1 25.875 12.075 15.525
1556 4 25.875 12.075 22.425
1557 5 25.875 12.075 32.775
1558 1 25.875 15.525 1.724999999999998
1559 2 25.875 15.525 12.075
1560 4 25.875 15.525 18.97499999999999
1561 2 25.875 15.525 22.425
1562 2 25.875 15.525 29.325
1563 4 25.875 15.525 32.77500000000001
1564 2 25.875 18.975 15.525
1565 4 25.875 18.975 32.77500000000001
1566 1 25.875 22.425 12.075
1567 5 25.875 22.425 15.525
1568 5 25.875 22.425 22.425
1569 5 25.875 22.425 29.325
1570 2 25.875 22.425 32.77500000000001
1571 5 25.875 29.325 15.525
1572 5 25.875 29.325 22.425
1573 3 25.875 29.325 32.775
1574 5 25.875 32.77500000000001 1.724999999999998
1575 4 25.875 32.77500000000001 12.075
1576 3 25.875 32.77500000000001 15.52500000000001
1577 4 25.875 32.77500000000001 18.97499999999999
1578 5 25.875 32.77500000000001 22.425
1579 5 25.875 32.77500000000001 29.325
1580 3 25.875 32.77500000000001 32.77500000000001
1581 2 25.87500000000001 15.525 15.525
1582 4 27.6 17.25 24.15
1583 1 27.6 24.15 17.25
1584 1 27.6 24.15 24.15000000000001
1585 4 27.6 0 0
1586 4 27.6 0 3.449999999999999
1587 1 27.6 0 6.899999999999999
1588 5 27.6 0 10.35
1589 3 27.6 0 17.25
1590 5 27.6 0 20.7
1591 5 27.6 0 27.6
1592 1 27.6 1.915134717478395e-15 24.15
1593 2 27.6 3.449999999999998 13.8
1594 4 27.6 3.449999999999998 31.05
1595 5 27.6 3.449999999999999 0
1596 2 27.6 3.449999999999999 10.35
1597 5 27.6 3.449999999999999 20.7
1598 1 27.6 3.449999999999999 27.6
1599 1 27.6 3.450000000000001 3.450000000000001
1600 5 27.6 3.450000000000001 6.9
1601 5 27.6 3.450000000000001 17.25
1602 5 27.6 3.450000000000001 24.15
1603 3 27.6 6.899999999999999 0
1604 1 27.6 6.899999999999999 10.35
1605 1 27.6 6.899999999999999 13.8
1606 4 27.6 6.899999999999999 20.7
1607 3 27.6 6.899999999999999 27.6
1608 4 27.6 6.899999999999999 31.05
1609 4 27.6 6.9 3.450000000000003
1610 5 27.6 6.9 6.899999999999999
1611 1 27.6 6.9 17.25
1612 3 27.6 6.9 24.15
1613 1 27.6 10.35 13.8
1614 2 27.6 10.35 20.7
1615 1 27.6 10.35 0
1616 4 27.6 10.35 3.449999999999999
1617 3 27.6 10.35 6.899999999999999
1618 2 27.6 10.35 10.35
1619 3 27.6 10.35 17.25
1620 2 27.6 10.35 24.15
1621 3 27.6 10.35 27.6
1622 2 27.6 10.35 31.05
1623 4 27.6 13.8 0
1624 5 27.6 13.8 3.449999999999995
1625 3 27.6 13.8 10.35
1626 2 27.6 13.8 17.25
1627 2 27.6 13.8 6.899999999999999
1628 4 27.6 13.8 24.15
1629 4 27.6 13.8 27.6
1630 1 27.6 17.25 13.8
1631 3 27.6 17.25 0
1632 3 27.6 17.25 3.449999999999999
1633 1 27.6 17.25 6.900000000000002
1634 5 27.6 17.25 10.35
1635 3 27.6 17.25 17.25
1636 4 27.6 17.25 20.7
1637 4 27.6 17.25 27.6
1638 3 27.6 17.25 31.05000000000001
1639 3 27.6 20.7 0
1640 3 27.6 20.7 3.449999999999999
1641 3 27.6 20.7 6.899999999999999
1642 2 27.6 20.7 10.35
1643 5 27.6 20.7 17.25
1644 1 27.6 20.7 20.70000000000001
1645 2 27.6 20.7 24.15
1646 3 27.6 20.7 27.6
1647 4 27.6 24.15 0
1648 2 27.6 24.15 3.450000000000003
1649 5 27.6 24.15 6.899999999999999
1650 1 27.6 24.15 10.35
1651 3 27.6 24.15 13.8
1652 2 27.6 24.15 20.7
1653 5 27.6 24.15 27.6
1654 2 27.6 24.15 31.05
1655 3 27.6 27.6 0
1656 3 27.6 27.6 3.449999999999999
1657 3 27.6 27.6 6.899999999999999
1658 4 27.6 27.6 10.35
1659 3 27.6 27.6 13.8
1660 5 27.6 27.6 17.25
1661 4 27.6 27.6 20.7
1662 2 27.6 27.6 24.15
1663 2 27.6 27.6 27.6
1664 2 27.6 27.6 31.05
1665 5 27.6 31.05 0
1666 4 27.6 31.05 3.449999999999995
1667 3 27.6 31.05 6.899999999999999
1668 2 27.6 31.05 10.35
1669 5 27.6 31.05 17.25
1670 4 27.6 31.05 24.15
1671 3 27.6 31.05 27.6
1672 3 27.6 34.5 13.8
1673 1 27.6 34.5 31.05
1674 3 27.6 13.8 13.8
1675 5 27.6 13.8 20.7
1676 2 27.6 13.8 31.05
1677 4 27.6 20.7 13.8
1678 2 27.6 20.7 31.05
1679 1 27.6 31.05 13.8
1680 3 27.6 31.05 20.7
1681 4 27.6 31.05 31.05
1682 4 29.325 1.725000000000001 22.425
1683 1 29.325 5.175000000000001 1.725000000000001
1684 2 29.325 5.175000000000001 5.175000000000001
1685 2 29.325 5.175000000000001 15.525
1686 3 29.325 5.175000000000001 22.425
1687 1 29.325 5.175000000000001 32.77500000000001
1688 1 29.325 8.625000000000004 32.775
1689 2 29.325 15.525 5.175000000000001
1690 4 29.325 15.525 22.425
1691 1 29.325 15.525 25.875
1692 2 29.325 15.525 32.77500000000001
1693 1 29.325 18.975 22.425
1694 1 29.325 22.425 1.725000000000001
1695 2 29.325 22.425 5.175000000000001
1696 3 29.325 22.425 15.52500000000001
1697 3 29.325 22.425 18.97500000000001
1698 3 29.325 22.425 22.425
1699 1 29.325 22.425 25.875
1700 1 29.325 22.425 32.77500000000001
1701 5 29.325 25.875 15.525
1702 2 29.325 25.875 22.425
1703 2 29.325 25.875 32.775
1704 3 29.325 32.77500000000001 5.175000000000001
1705 4 29.325 32.77500000000001 8.625000000000004
1706 4 29.325 32.77500000000001 15.525
1707 3 29.325 32.77500000000001 22.425
1708 1 29.325 32.77500000000001 25.875
1709 1 29.325 32.77500000000001 32.77500000000001
1710 2 29.325 1.724999999999998 12.075
1711 4 29.325 1.724999999999998 29.325
1712 5 29.325 1.725 1.725
1713 5 29.325 1.725 5.174999999999999
1714 1 29.325 1.725 8.625000000000002
1715 4 29.325 1.725 15.525
1716 3 29.325 1.725 18.975
1717 1 29.325 1.725 25.87500000000001
1718 3 29.325 1.725 32.775
1719 5 29.325 5.174999999999997 12.075
1720 4 29.325 5.174999999999997 29.325
1721 3 29.325 5.174999999999999 8.625
1722 1 29.325 5.174999999999999 18.975
1723 3 29.325 5.174999999999999 25.875
1724 2 29.325 8.625 8.625
1725 4 29.325 8.625 12.075
1726 1 29.325 8.625 18.975
1727 2 29.325 8.625 25.875
1728 5 29.325 8.625 29.325
1729 2 29.325 8.625000000000002 1.725000000000001
1730 1 29.325 8.625000000000002 5.174999999999997
1731 4 29.325 8.625000000000002 15.525
1732 3 29.325 8.625000000000002 22.425
1733 4 29.325 12.075 12.075
1734 1 29.325 12.075 18.975
1735 1 29.325 12.075 1.724999999999998
1736 5 29.325 12.075 5.174999999999997
1737 3 29.325 12.075 8.625
1738 1 29.325 12.075 15.525
1739 1 29.325 12.075 22.425
1740 5 29.325 12.075 25.875
1741 4 29.325 12.075 29.325
1742 1 29.325 12.075 32.775
1743 4 29.325 15.525 12.075
1744 3 29.325 15.525 18.975
1745 4 29.325 15.525 29.325
1746 1 29.325 15.525 1.724999999999998
1747 2 29.325 15.525 8.625000000000004
1748 2 29.325 15.525 15.525
1749 2 29.325 18.975 1.724999999999998
1750 2 29.325 18.975 5.175000000000001
1751 5 29.325 18.975 8.625
1752 2 29.325 18.975 12.075
1753 1 29.325 18.975 15.525
1754 1 29.325 18.975 18.975
1755 3 29.325 18.975 25.875
1756 1 29.325 18.975 29.32500000000001
1757 5 29.325 18.975 32.77499999999999
1758 1 29.325 22.425 8.625
1759 4 29.325 22.425 12.075
1760 3 29.325 22.425 29.325
1761 1 29.325 25.875 1.725000000000001
1762 4 29.325 25.875 5.174999999999997
1763 3 29.325 25.875 8.625
1764 3 29.325 25.875 12.075
1765 1 29.325 25.875 18.975
1766 1 29.325 25.875 25.875
1767 1 29.325 25.875 29.325
1768 2 29.325 29.325 1.724999999999998
1769 5 29.325 29.325 5.174999999999997
1770 5 29.325 29.325 8.625
1771 4 29.325 29.325 12.075
1772 2 29.325 29.325 15.525
1773 3 29.325 29.325 18.975
1774 5 29.325 29.325 22.425
1775 4 29.325 29.325 25.875
1776 3 29.325 29.325 29.325
1777 1 29.325 29.325 32.775
1778 5 29.325 32.775 1.724999999999998
1779 5 29.325 32.775 12.075
1780 3 29.325 32.775 18.975
1781 2 29.325 32.775 29.325
1782 3 31.05 1.915134717478395e-15 20.7
1783 5 31.05 3.450000000000001 20.7
1784 4 31.05 20.7 0
1785 5 31.05 20.7 3.450000000000003
1786 2 31.05 20.7 20.7
1787 4 31.05 0 0
1788 1 31.05 0 3.450000000000001
1789 5 31.05 0 13.8
1790 5 31.05 0 24.15000000000001
1791 5 31.05 0 31.05
1792 5 31.05 3.449999999999999 0
1793 3 31.05 3.449999999999999 3.449999999999999
1794 4 31.05 3.449999999999999 6.900000000000002
1795 5 31.05 3.449999999999999 13.8
1796 1 31.05 3.449999999999999 17.25
1797 1 31.05 3.449999999999999 24.15000000000001
1798 4 31.05 3.449999999999999 31.05
1799 3 31.05 6.900000000000002 0
1800 4 31.05 6.900000000000002 3.449999999999999
1801 2 31.05 6.900000000000002 13.8
1802 5 31.05 6.900000000000002 20.7
1803 4 31.05 6.900000000000002 31.05
1804 4 31.05 10.35 31.05
1805 5 31.05 13.8 0
1806 4 31.05 13.8 3.449999999999999
1807 1 31.05 13.8 6.900000000000002
1808 1 31.05 13.8 13.8
1809 5 31.05 13.8 20.7
1810 1 31.05 13.8 24.15
1811 3 31.05 13.8 27.6
1812 3 31.05 13.8 31.05
1813 5 31.05 17.25 3.449999999999999
1814 2 31.05 17.25 20.7
1815 1 31.05 17.25 24.15
1816 4 31.05 17.25 31.05
1817 2 31.05 20.7 6.900000000000002
1818 1 31.05 20.7 13.8
1819 2 31.05 20.7 17.25
1820 1 31.05 20.7 24.15000000000001
1821 5 31.05 20.7 27.60000000000001
1822 4 31.05 20.7 31.05
1823 4 31.05 24.15 0
1824 3 31.05 24.15 3.449999999999999
1825 3 31.05 24.15 13.8
1826 4 31.05 24.15 17.25000000000001
1827 1 31.05 24.15 20.7
1828 4 31.05 24.15 24.15
1829 5 31.05 24.15 31.05
1830 3 31.05 27.6 13.8
1831 1 31.05 27.6 20.7
1832 1 31.05 27.6 31.05
1833 3 31.05 31.05 0
1834 1 31.05 31.05 3.449999999999999
1835 5 31.05 31.05 6.900000000000002
1836 2 31.05 31.05 10.35
1837 2 31.05 31.05 13.8
1838 1 31.05 31.05 17.25
1839 3 31.05 31.05 20.7
1840 4 31.05 31.05 24.15
1841 1 31.05 31.05 27.6
1842 4 31.05 31.05 31.05
1843 4 31.05 3.449999999999998 10.35
1844 3 31.05 3.449999999999998 27.6
1845 5 31.05 6.899999999999999 10.35
1846 2 31.05 6.899999999999999 27.6
1847 5 31.05 6.9 6.899999999999999
1848 4 31.05 6.9 17.25
1849 1 31.05 6.9 24.15
1850 3 31.05 10.35 6.899999999999999
1851 3 31.05 10.35 10.35
1852 5 31.05 10.35 17.25
1853 4 31.05 10.35 24.15
1854 4 31.05 10.35 27.6
1855 2 31.05 10.35 0
1856 2 31.05 10.35 3.449999999999995
1857 4 31.05 10.35 13.8
1858 2 31.05 10.35 20.7
1859 2 31.05 13.8 10.35
1860 1 31.05 13.8 17.25
1861 2 31.05 17.25 6.900000000000002
1862 5 31.05 17.25 10.35
1863 3 31.05 17.25 13.8
1864 1 31.05 17.25 17.25
1865 4 31.05 17.25 27.6
1866 3 31.05 17.25 34.49999999999999
1867 4 31.05 20.7 10.35
1868 2 31.05 24.15 6.899999999999999
1869 2 31.05 24.15 10.35
1870 2 31.05 24.15 27.6
1871 5 31.05 27.6 0
1872 2 31.05 27.6 3.449999999999995
1873 2 31.05 27.6 6.899999999999999
1874 4 31.05 27.6 10.35
1875 2 31.05 27.6 17.25
1876 1 31.05 27.6 24.15
1877 4 31.05 27.6 27.6
1878 1 31.05 34.5 6.9
1879 2 31.05 34.5 10.35
1880 3 31.05 34.5 17.25
1881 5 31.05 34.5 27.6
1882 1 32.775 1.725 1.725000000000001
1883 2 32.775 1.725 12.075
1884 1 32.775 1.725 22.425
1885 3 32.775 1.725 29.325
1886 3 32.775 1.725000000000001 18.975
1887 3 32.775 5.175000000000002 18.975
1888 4 32.775 12.075 1.724999999999998
1889 3 32.775 12.075 12.075
1890 3 32.775 12.075 18.975
1891 5 32.775 12.075 29.325
1892 3 32.775 18.975 1.725000000000001
1893 1 32.775 18.975 5.175000000000004
1894 2 32.775 18.975 12.075
1895 1 32.775 18.975 18.975
1896 3 32.775 18.975 22.425
1897 1 32.775 18.975 29.325
1898 3 32.775 22.425 1.725000000000001
1899 5 32.775 22.425 18.975
1900 1 32.775 29.325 1.724999999999998
1901 3 32.775 29.325 12.075
1902 5 32.775 29.325 18.975
1903 1 32.775 29.325 29.325
1904 4 32.77500000000001 1.724999999999998 5.175000000000001
1905 4 32.77500000000001 1.724999999999998 8.625000000000004
1906 2 32.77500000000001 1.724999999999998 15.525
1907 5 32.77500000000001 1.724999999999998 25.875
1908 2 32.77500000000001 1.724999999999998 32.77500000000001
1909 3 32.77500000000001 5.175000000000001 1.724999999999998
1910 4 32.77500000000001 5.175000000000001 5.175000000000001
1911 2 32.77500000000001 5.175000000000001 12.075
1912 3 32.77500000000001 5.175000000000001 15.525
1913 1 32.77500000000001 5.175000000000001 22.425
1914 2 32.77500000000001 5.175000000000001 29.325
1915 5 32.77500000000001 5.175000000000001 32.775
1916 2 32.77500000000001 8.625000000000004 1.724999999999998
1917 4 32.77500000000001 8.625000000000004 12.075
1918 4 32.77500000000001 8.625000000000004 18.97499999999999
1919 3 32.77500000000001 8.625000000000004 29.325
1920 3 32.77500000000001 8.625000000000004 32.77500000000001
1921 4 32.77500000000001 12.075 5.175000000000001
1922 1 32.77500000000001 12.075 8.625000000000004
1923 3 32.77500000000001 12.075 15.525
1924 3 32.77500000000001 12.075 22.425
1925 2 32.77500000000001 12.075 25.875
1926 3 32.77500000000001 12.075 32.77500000000001
1927 4 32.77500000000001 15.525 1.724999999999998
1928 3 32.77500000000001 15.525 5.175000000000001
1929 2 32.77500000000001 15.525 12.075
1930 1 32.77500000000001 15.525 18.975
1931 4 32.77500000000001 15.525 22.425
1932 1 32.77500000000001 15.525 25.875
1933 4 32.77500000000001 15.525 29.325
1934 1 32.77500000000001 15.525 32.77500000000001
1935 3 32.77500000000001 18.975 8.625
1936 4 32.77500000000001 18.975 15.52500000000001
1937 3 32.77500000000001 18.975 25.875
1938 3 32.77500000000001 18.975 32.77500000000001
1939 3 32.77500000000001 22.425 5.175000000000001
1940 5 32.77500000000001 22.425 12.075
1941 1 32.77500000000001 22.425 15.525
1942 2 32.77500000000001 22.425 22.425
1943 1 32.77500000000001 22.425 25.87500000000001
1944 2 32.77500000000001 22.425 29.325
1945 4 32.77500000000001 22.425 32.775
1946 4 32.77500000000001 25.875 1.724999999999998
1947 4 32.77500000000001 25.875 12.075
1948 3 32.77500000000001 25.875 15.52500000000001
1949 5 32.77500000000001 25.875 18.97499999999999
1950 5 32.77500000000001 25.875 22.425
1951 3 32.77500000000001 25.875 29.325
1952 2 32.77500000000001 25.875 32.77500000000001
1953 3 32.77500000000001 29.325 5.175000000000001
1954 3 32.77500000000001 29.325 8.625000000000004
1955 5 32.77500000000001 29.325 15.525
1956 2 32.77500000000001 29.325 22.425
1957 1 32.77500000000001 29.325 25.875
1958 4 32.77500000000001 29.325 32.77500000000001
1959 3 32.77500000000001 32.77500000000001 1.724999999999998
1960 4 32.77500000000001 32.77500000000001 5.175000000000001
1961 4 32.77500000000001 32.77500000000001 8.625000000000004
1962 5 32.77500000000001 32.77500000000001 12.075
1963 2 32.77500000000001 32.77500000000001 15.525
1964 1 32.77500000000001 32.77500000000001 18.975
1965 2 32.77500000000001 32.77500000000001 22.425
1966 2 32.77500000000001 32.77500000000001 25.875
1967 3 32.77500000000001 32.77500000000001 29.325
1968 1 32.77500000000001 32.77500000000001 32.77500000000001
1969 5 32.77500000000001 5.174999999999999 8.625
1970 2 32.77500000000001 5.174999999999999 25.875
1971 5 32.77500000000001 8.625 8.625
1972 1 32.77500000000001 8.625 25.875
1973 1 32.77500000000001 8.625000000000002 5.174999999999997
1974 4 32.77500000000001 8.625000000000002 15.525
1975 3 32.77500000000001 8.625000000000002 22.425
1976 2 32.77500000000001 15.525 8.625000000000004
1977 1 32.77500000000001 15.525 15.525
1978 2 32.77500000000001 22.425 8.625
1979 3 32.77500000000001 25.875 5.174999999999997
1980 3 32.77500000000001 25.875 8.625
1981 1 32.77500000000001 25.875 25.875
1982 2 34.5 3.450000000000001 6.9
1983 2 34.5 3.450000000000002 17.25
1984 5 34.5 6.9 3.45
1985 4 34.5 6.900000000000001 13.8
1986 4 34.5 6.900000000000001 17.25
1987 1 34.5 6.900000000000001 31.05
1988 1 34.5 10.35 31.05
1989 5 34.5 13.8 6.9
1990 1 34.5 13.8 27.6
1991 3 34.5 17.25 3.450000000000001
1992 2 34.5 17.25 24.15000000000001
1993 2 34.5 17.25 31.05
1994 1 34.5 24.15000000000001 17.25
1995 4 34.5 27.6 13.8
1996 2 34.5 27.6 31.05
1997 5 34.5 31.05 6.9
1998 2 34.5 31.05 10.35
1999 5 34.5 31.05 17.25
2000 5 34.5 31.05 27.6
