# BCC HfMoTaTiZr; n=2000; seed=20263852

2000 atoms
5 atom types

0.0 34.5 xlo xhi
0.0 34.5 ylo yhi
0.0 34.5 zlo zhi
0 0 0 xy xz yz

Masses

1 178.49 # Hf
2 95.95 # Mo
3 180.94788 # Ta
4 47.867 # Ti
5 91.224 # Zr

Atoms # atomic

1 1 0 0 0
2 4 0 0 3.45
3 4 0 0 6.9
4 4 0 0 10.35
5 4 0 0 13.8
6 3 0 0 17.25
7 2 0 0 20.7
8 5 0 0 24.15
9 5 0 0 27.6
10 5 0 0 31.05
11 2 0 3.45 0
12 2 0 3.45 3.450000000000001
13 1 0 6.9 0
14 3 0 6.9 6.900000000000001
15 2 0 10.35 0
16 3 0 10.35 3.449999999999999
17 3 0 10.35 10.35
18 5 0 10.35 13.8
19 5 0 10.35 17.25
20 3 0 10.35 27.6
21 3 0 13.8 0
22 4 0 13.8 3.449999999999999
23 5 0 13.8 10.35
24 1 0 13.8 13.8
25 2 0 13.8 17.25
26 2 0 13.8 24.15000000000001
27 3 0 13.8 31.05
28 4 0 17.25 0
29 5 0 17.25 6.900000000000002
30 2 0 17.25 10.35
31 3 0 17.25 13.8
32 5 0 17.25 17.25
33 4 0 17.25 20.7
34 2 0 17.25 27.6
35 4 0 20.7 0
36 3 0 20.7 3.449999999999999
37 4 0 20.7 6.899999999999999
38 2 0 20.7 17.25
39 3 0 20.7 20.7
40 5 0 20.7 27.6
41 1 0 24.15 0
42 2 0 24.15 3.449999999999999
43 5 0 24.15 13.8
44 3 0 24.15 24.15
45 5 0 24.15 31.05
46 4 0 27.6 0
47 2 0 27.6 3.449999999999999
48 4 0 27.6 6.899999999999999
49 2 0 27.6 10.35
50 2 0 27.6 17.25
51 5 0 27.6 20.7
52 3 0 27.6 27.6
53 2 0 31.05 0
54 1 0 31.05 3.450000000000001
55 3 0 31.05 13.8
56 2 0 31.05 24.15000000000001
57 4 0 31.05 31.05
58 4 4.787836793695988e-16 3.45 10.35
59 3 4.787836793695988e-16 3.45 13.8
60 5 4.787836793695988e-16 3.45 20.7
61 5 4.787836793695988e-16 3.45 24.15
62 1 4.787836793695988e-16 3.45 27.6
63 1 4.787836793695988e-16 3.45 31.05
64 5 9.575673587391975e-16 6.899999999999999 10.35
65 1 9.575673587391975e-16 6.899999999999999 20.7
66 1 9.575673587391975e-16 6.899999999999999 24.15
67 3 9.575673587391975e-16 6.899999999999999 27.6
68 1 9.575673587391975e-16 10.35 6.899999999999999
69 1 1.915134717478395e-15 10.35 20.7
70 3 1.915134717478395e-15 10.35 24.15
71 1 1.915134717478395e-15 13.8 20.7
72 2 1.915134717478395e-15 20.7 10.35
73 3 1.915134717478395e-15 20.7 13.8
74 2 1.915134717478395e-15 20.7 24.15
75 5 1.915134717478395e-15 20.7 31.05
76 1 1.915134717478395e-15 24.15 6.9
77 4 1.915134717478395e-15 24.15 10.35
78 1 1.915134717478395e-15 24.15 20.7
79 2 1.915134717478395e-15 24.15 27.59999999999999
80 1 1.915134717478395e-15 27.6 24.15
81 3 1.915134717478395e-15 31.05 20.7
82 2 1.724999999999998 8.625000000000004 32.77500000000001
83 2 1.724999999999998 12.075 29.325
84 5 1.724999999999998 15.525 25.875
85 1 1.724999999999998 15.525 32.77500000000001
86 4 1.724999999999998 25.875 15.525
87 5 1.724999999999998 25.875 32.77500000000001
88 3 1.724999999999998 29.325 12.075
89 1 1.724999999999998 29.325 29.325
90 5 1.724999999999998 32.77500000000001 5.175000000000001
91 3 1.724999999999998 32.77500000000001 8.625000000000004
92 2 1.724999999999998 32.77500000000001 15.525
93 2 1.724999999999998 32.77500000000001 25.875
94 5 1.724999999999998 32.77500000000001 32.77500000000001
95 5 1.724999999999999 5.175000000000002 15.525
96 1 1.724999999999999 5.175000000000002 32.77500000000001
97 1 1.724999999999999 15.525 5.175000000000001
98 4 1.725 5.175000000000001 5.175
99 1 1.725 8.625000000000002 12.075
100 4 1.725 8.625000000000002 15.525
101 4 1.725 8.625000000000002 29.325
102 1 1.725 12.075 1.725
103 3 1.725 12.075 8.625000000000002
104 3 1.725 12.075 12.075
105 3 1.725 12.075 15.525
106 3 1.725 12.075 25.875
107 5 1.725 12.075 32.775
108 1 1.725 15.525 1.725
109 3 1.725 15.525 8.625
110 4 1.725 15.525 12.075
111 3 1.725 15.525 15.525
112 5 1.725 15.525 22.425
113 1 1.725 15.525 29.325
114 4 1.725 18.975 1.725
115 2 1.725 18.975 22.425
116 2 1.725 18.975 29.325
117 4 1.725 22.425 1.725
118 2 1.725 22.425 5.174999999999999
119 3 1.725 22.425 15.525
120 5 1.725 22.425 18.975
121 4 1.725 22.425 25.875
122 1 1.725 22.425 32.775
123 3 1.725 25.875 1.725
124 2 1.725 25.875 12.075
125 2 1.725 25.875 22.425
126 5 1.725 25.875 29.325
127 4 1.725 29.325 1.725
128 5 1.725 29.325 5.174999999999999
129 4 1.725 29.325 8.625000000000002
130 3 1.725 29.325 15.525
131 3 1.725 29.325 18.975
132 3 1.725 29.325 25.87500000000001
133 3 1.725 29.325 32.775
134 4 1.725 32.775 1.725000000000001
135 1 1.725 32.775 12.075
136 2 1.725 32.775 22.425
137 3 1.725 32.775 29.325
138 5 1.725 1.725 1.725
139 1 1.725 1.725 5.175000000000001
140 3 1.725 1.725 8.625000000000002
141 5 1.725 1.725 12.075
142 3 1.725 1.725 15.525
143 2 1.725 1.725 18.975
144 5 1.725 1.725 22.425
145 5 1.725 1.725 25.875
146 5 1.725 1.725 29.325
147 5 1.725 1.725 32.775
148 4 1.725 5.175000000000001 1.725000000000001
149 3 1.725 8.625000000000002 1.725
150 1 1.725000000000001 5.175 8.625
151 4 1.725000000000001 5.175 12.075
152 3 1.725000000000001 5.175 18.975
153 4 1.725000000000001 5.175 22.425
154 1 1.725000000000001 5.175 25.875
155 4 1.725000000000001 5.175 29.325
156 2 1.725000000000001 8.625 5.175000000000001
157 1 1.725000000000001 12.075 5.174999999999999
158 5 1.725000000000001 8.625 8.625
159 4 1.725000000000001 8.625 18.975
160 4 1.725000000000001 8.625 22.425
161 3 1.725000000000001 8.625 25.875
162 4 1.725000000000001 12.075 18.975
163 3 1.725000000000001 12.075 22.425
164 5 1.725000000000001 15.525 18.975
165 5 1.725000000000001 18.975 5.175000000000001
166 1 1.725000000000001 18.975 8.625
167 1 1.725000000000001 18.975 12.075
168 3 1.725000000000001 18.975 15.525
169 4 1.725000000000001 18.975 18.975
170 3 1.725000000000001 18.975 25.875
171 5 1.725000000000001 18.975 32.775
172 3 1.725000000000001 22.425 8.625000000000002
173 1 1.725000000000001 22.425 12.075
174 5 1.725000000000001 22.425 22.425
175 5 1.725000000000001 22.425 29.325
176 3 1.725000000000001 25.875 5.175000000000001
177 3 1.725000000000001 25.875 8.625
178 1 1.725000000000001 25.875 18.975
179 2 1.725000000000001 25.875 25.875
180 3 1.725000000000001 29.325 22.425
181 3 1.725000000000001 32.775 18.975
182 4 3.449999999999998 10.35 31.05
183 5 3.449999999999998 13.8 27.6
184 5 3.449999999999998 27.6 13.8
185 2 3.449999999999998 27.6 31.05
186 3 3.449999999999998 31.05 10.35
187 2 3.449999999999998 31.05 27.6
188 2 3.449999999999999 6.900000000000002 13.8
189 3 3.449999999999999 6.900000000000002 31.05
190 2 3.449999999999999 10.35 10.35
191 2 3.449999999999999 10.35 13.8
192 1 3.449999999999999 10.35 27.6
193 1 3.449999999999999 13.8 0
194 4 3.449999999999999 13.8 6.900000000000002
195 4 3.449999999999999 13.8 10.35
196 3 3.449999999999999 13.8 13.8
197 1 3.449999999999999 13.8 24.15
198 1 3.449999999999999 13.8 31.05
199 3 3.449999999999999 17.25 24.15
200 1 3.449999999999999 17.25 31.05
201 2 3.449999999999999 20.7 0
202 4 3.449999999999999 20.7 20.7
203 5 3.449999999999999 20.7 27.6
204 1 3.449999999999999 24.15 0
205 1 3.449999999999999 24.15 3.449999999999999
206 5 3.449999999999999 24.15 13.8
207 1 3.449999999999999 24.15 17.25
208 2 3.449999999999999 24.15 24.15
209 2 3.449999999999999 24.15 31.05
210 1 3.449999999999999 27.6 0
211 3 3.449999999999999 27.6 10.35
212 2 3.449999999999999 27.6 20.7
213 1 3.449999999999999 27.6 27.6
214 1 3.449999999999999 31.05 0
215 5 3.449999999999999 31.05 3.449999999999999
216 1 3.449999999999999 31.05 6.900000000000002
217 5 3.449999999999999 31.05 13.8
218 4 3.449999999999999 31.05 17.25
219 1 3.449999999999999 31.05 24.15000000000001
220 4 3.449999999999999 31.05 31.05
221 2 3.45 4.787836793695988e-16 10.35
222 2 3.45 4.787836793695988e-16 13.8
223 4 3.45 4.787836793695988e-16 20.7
224 4 3.45 4.787836793695988e-16 24.15
225 1 3.45 4.787836793695988e-16 27.6
226 3 3.45 4.787836793695988e-16 31.05
227 2 3.45 10.35 0
228 5 3.45 0 0
229 2 3.45 0 3.450000000000001
230 2 3.45 3.45 0
231 1 3.45 3.45 3.45
232 2 3.45 3.45 6.900000000000001
233 1 3.45 3.45 10.35
234 1 3.45 3.45 13.8
235 3 3.45 3.45 17.25
236 4 3.45 3.45 20.7
237 1 3.45 3.45 24.15
238 1 3.45 3.45 27.6
239 4 3.45 3.45 31.05
240 1 3.45 6.900000000000001 3.449999999999999
241 4 3.45 10.35 3.450000000000001
242 2 3.45 13.8 3.449999999999999
243 1 3.45 17.25 3.449999999999999
244 2 3.450000000000001 6.9 0
245 5 3.450000000000001 34.5 6.9
246 1 3.450000000000001 6.9 6.9
247 1 3.450000000000001 6.9 10.35
248 5 3.450000000000001 6.9 17.25
249 4 3.450000000000001 6.9 20.7
250 2 3.450000000000001 6.9 24.15
251 2 3.450000000000001 6.9 27.6
252 5 3.450000000000001 10.35 6.9
253 3 3.450000000000001 10.35 17.25
254 3 3.450000000000001 10.35 20.7
255 5 3.450000000000001 10.35 24.15
256 2 3.450000000000001 13.8 17.25
257 3 3.450000000000001 13.8 20.7
258 4 3.450000000000001 17.25 6.899999999999999
259 4 3.450000000000001 17.25 10.35
260 5 3.450000000000001 17.25 13.8
261 5 3.450000000000001 17.25 20.7
262 5 3.450000000000001 17.25 27.6
263 1 3.450000000000001 17.25 34.5
264 2 3.450000000000001 20.7 3.450000000000001
265 2 3.450000000000001 20.7 6.9
266 2 3.450000000000001 20.7 10.35
267 3 3.450000000000001 20.7 13.8
268 4 3.450000000000001 20.7 17.25
269 4 3.450000000000001 20.7 24.15
270 1 3.450000000000001 20.7 31.05
271 3 3.450000000000001 24.15 6.900000000000002
272 2 3.450000000000001 24.15 10.35
273 5 3.450000000000001 24.15 20.7
274 3 3.450000000000001 24.15 27.6
275 1 3.450000000000001 27.6 3.450000000000001
276 5 3.450000000000001 27.6 6.9
277 4 3.450000000000001 27.6 17.25
278 2 3.450000000000001 27.6 24.15
279 1 3.450000000000001 31.05 20.7
280 2 3.450000000000002 34.5 17.25
281 3 3.450000000000003 17.25 17.25
282 3 5.174999999999997 12.075 29.325
283 4 5.174999999999997 29.325 12.075
284 2 5.174999999999997 29.325 29.325
285 5 5.174999999999999 8.625000000000002 12.075
286 4 5.174999999999999 8.625000000000002 29.325
287 4 5.174999999999999 8.625000000000002 32.77500000000001
288 2 5.174999999999999 12.075 8.625
289 3 5.174999999999999 12.075 12.075
290 5 5.174999999999999 12.075 25.875
291 3 5.174999999999999 15.525 25.875
292 5 5.174999999999999 18.975 22.425
293 3 5.174999999999999 18.975 29.325
294 5 5.174999999999999 22.425 18.975
295 1 5.174999999999999 22.425 25.875
296 4 5.174999999999999 25.875 1.725
297 1 5.174999999999999 25.875 12.075
298 3 5.174999999999999 25.875 15.525
299 1 5.174999999999999 25.875 22.425
300 2 5.174999999999999 25.875 29.325
301 5 5.174999999999999 25.875 32.77500000000001
302 5 5.174999999999999 29.325 8.625
303 2 5.174999999999999 29.325 18.975
304 2 5.174999999999999 29.325 25.875
305 2 5.174999999999999 32.77500000000001 8.625
306 4 5.174999999999999 32.77500000000001 25.875
307 2 5.175 1.725000000000001 8.625
308 4 5.175 1.725000000000001 12.075
309 1 5.175 1.725000000000001 18.975
310 5 5.175 1.725000000000001 22.425
311 3 5.175 1.725000000000001 25.875
312 2 5.175 1.725000000000001 29.325
313 3 5.175 8.625 1.725
314 3 5.175 12.075 1.725000000000001
315 5 5.175 18.975 1.725
316 5 5.175000000000001 1.725 5.175
317 4 5.175000000000001 1.725 1.725000000000001
318 4 5.175000000000001 5.175000000000001 1.725
319 4 5.175000000000001 5.175000000000001 5.175000000000001
320 1 5.175000000000001 5.175000000000001 8.625
321 4 5.175000000000001 5.175000000000001 12.075
322 5 5.175000000000001 5.175000000000001 15.525
323 3 5.175000000000001 5.175000000000001 18.975
324 5 5.175000000000001 5.175000000000001 22.425
325 2 5.175000000000001 5.175000000000001 25.875
326 1 5.175000000000001 5.175000000000001 29.325
327 5 5.175000000000001 5.175000000000001 32.77500000000001
328 3 5.175000000000001 8.625 5.175000000000001
329 5 5.175000000000001 8.625 8.625
330 4 5.175000000000001 8.625 15.525
331 5 5.175000000000001 8.625 18.975
332 1 5.175000000000001 8.625 22.425
333 2 5.175000000000001 8.625 25.875
334 4 5.175000000000001 12.075 5.175000000000001
335 4 5.175000000000001 12.075 15.525
336 3 5.175000000000001 12.075 18.975
337 2 5.175000000000001 12.075 22.425
338 1 5.175000000000001 12.075 32.77500000000001
339 3 5.175000000000001 15.525 5.175000000000001
340 4 5.175000000000001 15.525 8.625
341 1 5.175000000000001 15.525 12.075
342 2 5.175000000000001 15.525 22.425
343 4 5.175000000000001 15.525 29.325
344 1 5.175000000000001 15.525 32.775
345 4 5.175000000000001 18.975 5.174999999999999
346 4 5.175000000000001 18.975 8.625000000000002
347 3 5.175000000000001 18.975 12.075
348 3 5.175000000000001 18.975 18.975
349 1 5.175000000000001 18.975 25.875
350 5 5.175000000000001 22.425 1.725000000000001
351 2 5.175000000000001 22.425 5.175000000000001
352 4 5.175000000000001 22.425 8.625
353 1 5.175000000000001 22.425 12.075
354 4 5.175000000000001 22.425 15.525
355 5 5.175000000000001 22.425 22.425
356 3 5.175000000000001 22.425 29.325
357 5 5.175000000000001 22.425 32.77500000000001
358 4 5.175000000000001 25.875 5.175000000000002
359 1 5.175000000000001 25.875 8.624999999999998
360 4 5.175000000000001 25.875 18.975
361 3 5.175000000000001 25.875 25.875
362 4 5.175000000000001 29.325 1.725000000000001
363 2 5.175000000000001 29.325 5.175000000000001
364 4 5.175000000000001 29.325 15.525
365 4 5.175000000000001 29.325 22.425
366 2 5.175000000000001 29.325 32.77500000000001
367 5 5.175000000000001 32.77500000000001 1.724999999999998
368 1 5.175000000000001 32.77500000000001 5.175000000000001
369 5 5.175000000000001 32.77500000000001 12.075
370 1 5.175000000000001 32.77500000000001 15.525
371 1 5.175000000000001 32.77500000000001 22.425
372 5 5.175000000000001 32.77500000000001 29.325
373 4 5.175000000000001 32.77500000000001 32.775
374 5 5.175000000000002 1.724999999999999 15.525
375 5 5.175000000000002 1.724999999999999 32.77500000000001
376 3 5.175000000000002 15.525 1.724999999999998
377 5 5.175000000000002 15.525 15.525
378 5 5.175000000000002 15.525 18.975
379 4 5.175000000000002 18.975 15.525
380 2 5.175000000000002 18.975 32.775
381 3 5.175000000000002 32.775 18.975
382 5 6.899999999999999 10.35 10.35
383 5 6.899999999999999 10.35 27.6
384 1 6.899999999999999 10.35 31.05
385 1 6.899999999999999 13.8 27.6
386 3 6.899999999999999 17.25 24.15
387 5 6.899999999999999 20.7 20.7
388 3 6.899999999999999 20.7 27.6
389 1 6.899999999999999 24.15 17.25000000000001
390 2 6.899999999999999 24.15 24.15000000000001
391 1 6.899999999999999 27.6 0
392 2 6.899999999999999 27.6 10.35
393 2 6.899999999999999 27.6 13.8
394 2 6.899999999999999 27.6 20.7
395 3 6.899999999999999 27.6 27.6
396 4 6.899999999999999 27.6 31.05
397 5 6.899999999999999 31.05 10.35
398 4 6.899999999999999 31.05 27.6
399 1 6.899999999999999 9.575673587391975e-16 10.35
400 2 6.899999999999999 9.575673587391975e-16 20.7
401 2 6.899999999999999 9.575673587391975e-16 24.15
402 3 6.899999999999999 9.575673587391975e-16 27.6
403 5 6.899999999999999 10.35 0
404 5 6.899999999999999 20.7 0
405 3 6.9 0 0
406 1 6.9 0 6.900000000000001
407 5 6.9 3.450000000000001 0
408 1 6.9 3.450000000000001 6.9
409 2 6.9 3.450000000000001 10.35
410 3 6.9 3.450000000000001 17.25
411 2 6.9 3.450000000000001 20.7
412 1 6.9 3.450000000000001 24.15
413 3 6.9 3.450000000000001 27.6
414 2 6.9 6.9 0
415 5 6.9 6.9 3.450000000000001
416 2 6.9 6.9 6.9
417 1 6.9 6.9 10.35
418 4 6.9 6.9 13.8
419 5 6.9 6.9 17.25
420 3 6.9 6.9 20.7
421 4 6.9 6.9 24.15
422 4 6.9 6.9 27.6
423 5 6.9 6.9 31.05
424 1 6.9 10.35 3.450000000000001
425 2 6.9 10.35 6.9
426 3 6.9 10.35 13.8
427 5 6.9 10.35 17.25
428 5 6.9 10.35 20.7
429 2 6.9 10.35 24.15
430 4 6.9 13.8 6.899999999999999
431 3 6.9 13.8 10.35
432 4 6.9 13.8 24.15
433 5 6.9 17.25 3.450000000000001
434 5 6.9 17.25 6.9
435 4 6.9 17.25 10.35
436 5 6.9 17.25 20.7
437 5 6.9 17.25 27.59999999999999
438 4 6.9 17.25 31.05
439 2 6.9 20.7 3.449999999999999
440 3 6.9 20.7 6.900000000000002
441 1 6.9 20.7 10.35
442 1 6.9 20.7 17.25
443 1 6.9 20.7 24.15
444 3 6.9 24.15 1.915134717478395e-15
445 1 6.9 24.15 3.450000000000001
446 3 6.9 24.15 6.9
447 1 6.9 24.15 10.35
448 5 6.9 24.15 13.8
449 2 6.9 24.15 20.7
450 5 6.9 24.15 27.6
451 5 6.9 24.15 31.05
452 5 6.9 27.6 3.450000000000003
453 2 6.9 27.6 6.899999999999999
454 3 6.9 27.6 17.25
455 1 6.9 27.6 24.15
456 4 6.9 31.05 6.899999999999999
457 4 6.9 31.05 17.25
458 5 6.9 31.05 24.15
459 2 6.9 34.5 3.45
460 5 6.900000000000001 3.45 3.449999999999999
461 3 6.900000000000001 13.8 0
462 5 6.900000000000001 17.25 34.5
463 1 6.900000000000001 34.5 13.8
464 4 6.900000000000001 34.5 17.25
465 4 6.900000000000001 34.5 31.05
466 5 6.900000000000002 3.449999999999999 13.8
467 4 6.900000000000002 3.449999999999999 31.05
468 2 6.900000000000002 13.8 3.449999999999999
469 5 6.900000000000002 13.8 13.8
470 3 6.900000000000002 13.8 17.25
471 2 6.900000000000002 13.8 20.7
472 2 6.900000000000002 13.8 31.05
473 4 6.900000000000002 17.25 13.8
474 5 6.900000000000002 17.25 17.25
475 3 6.900000000000002 20.7 13.8
476 1 6.900000000000002 20.7 31.05
477 5 6.900000000000002 31.05 0
478 1 6.900000000000002 31.05 3.449999999999999
479 1 6.900000000000002 31.05 13.8
480 5 6.900000000000002 31.05 20.7
481 4 6.900000000000002 31.05 31.05
482 1 8.624999999999998 15.525 25.875
483 5 8.624999999999998 18.975 22.425
484 2 8.624999999999998 22.425 18.975
485 2 8.624999999999998 22.425 25.87500000000001
486 1 8.624999999999998 25.875 15.52500000000001
487 5 8.624999999999998 25.875 22.425
488 4 8.625 1.725000000000001 5.175000000000001
489 3 8.625 1.725000000000001 8.625
490 5 8.625 1.725000000000001 18.975
491 3 8.625 1.725000000000001 22.425
492 2 8.625 1.725000000000001 25.875
493 3 8.625 5.175 1.725
494 5 8.625 5.175000000000001 5.175000000000001
495 2 8.625 5.175000000000001 8.625
496 1 8.625 5.175000000000001 15.525
497 2 8.625 5.175000000000001 18.975
498 4 8.625 5.175000000000001 22.425
499 1 8.625 5.175000000000001 25.875
500 5 8.625 8.625 1.725000000000001
501 4 8.625 8.625 5.175000000000001
502 2 8.625 8.625 8.625
503 1 8.625 8.625 12.075
504 4 8.625 8.625 15.525
505 5 8.625 8.625 18.975
506 2 8.625 8.625 22.425
507 5 8.625 8.625 25.875
508 2 8.625 8.625 29.325
509 4 8.625 8.625 32.77500000000001
510 3 8.625 12.075 8.625
511 1 8.625 12.075 25.875
512 3 8.625 12.075 29.325
513 1 8.625 15.525 5.174999999999999
514 3 8.625 15.525 8.625000000000002
515 2 8.625 15.525 22.425
516 5 8.625 18.975 1.725000000000001
517 5 8.625 18.975 5.175000000000001
518 3 8.625 18.975 8.625
519 4 8.625 18.975 18.975
520 4 8.625 18.975 25.875
521 3 8.625 18.975 29.325
522 1 8.625 22.425 1.725
523 1 8.625 22.425 5.175000000000002
524 2 8.625 22.425 8.624999999999998
525 3 8.625 22.425 15.525
526 3 8.625 22.425 22.425
527 4 8.625 25.875 1.725000000000001
528 5 8.625 25.875 5.175000000000001
529 1 8.625 25.875 8.625
530 5 8.625 25.875 12.075
531 2 8.625 25.875 18.975
532 4 8.625 25.875 25.875
533 4 8.625 25.875 29.325
534 3 8.625 25.875 32.77500000000001
535 5 8.625 29.325 8.625
536 2 8.625 29.325 12.075
537 5 8.625 29.325 18.975
538 1 8.625 29.325 25.875
539 1 8.625 29.325 29.325
540 1 8.625 32.77500000000001 8.625
541 5 8.625 32.77500000000001 25.875
542 3 8.625000000000002 1.725 12.075
543 5 8.625000000000002 1.725 15.525
544 2 8.625000000000002 1.725 29.325
545 5 8.625000000000002 1.725 1.725
546 1 8.625000000000002 5.174999999999999 12.075
547 4 8.625000000000002 5.174999999999999 29.325
548 5 8.625000000000002 5.174999999999999 32.77500000000001
549 5 8.625000000000002 12.075 1.725
550 3 8.625000000000002 12.075 5.174999999999999
551 5 8.625000000000002 12.075 12.075
552 4 8.625000000000002 12.075 15.525
553 2 8.625000000000002 12.075 18.975
554 1 8.625000000000002 12.075 22.425
555 2 8.625000000000002 15.525 1.725
556 2 8.625000000000002 15.525 12.075
557 2 8.625000000000002 15.525 15.525
558 4 8.625000000000002 15.525 18.975
559 3 8.625000000000002 15.525 29.325
560 5 8.625000000000002 15.525 32.77500000000001
561 2 8.625000000000002 18.975 12.075
562 5 8.625000000000002 18.975 15.525
563 2 8.625000000000002 22.425 12.075
564 5 8.625000000000002 22.425 29.325
565 3 8.625000000000002 22.425 32.77500000000001
566 1 8.625000000000002 29.325 1.725000000000001
567 5 8.625000000000002 29.325 5.174999999999997
568 5 8.625000000000002 29.325 15.525
569 5 8.625000000000002 29.325 22.425
570 4 8.625000000000002 32.77500000000001 5.174999999999997
571 3 8.625000000000002 32.77500000000001 15.525
572 5 8.625000000000002 32.77500000000001 22.425
573 2 8.625000000000004 1.724999999999998 32.77500000000001
574 1 8.625000000000004 12.075 32.775
575 4 8.625000000000004 18.975 32.77500000000001
576 5 8.625000000000004 29.325 32.775
577 4 8.625000000000004 32.77500000000001 1.724999999999998
578 1 8.625000000000004 32.77500000000001 12.075
579 2 8.625000000000004 32.77500000000001 18.97499999999999
580 4 8.625000000000004 32.77500000000001 29.325
581 4 8.625000000000004 32.77500000000001 32.77500000000001
582 1 10.35 17.25 24.15
583 2 10.35 20.7 20.7
584 5 10.35 24.15 17.25
585 1 10.35 24.15 24.15000000000001
586 3 10.35 1.915134717478395e-15 20.7
587 5 10.35 1.915134717478395e-15 24.15
588 3 10.35 3.450000000000001 6.9
589 3 10.35 3.450000000000001 17.25
590 3 10.35 3.450000000000001 20.7
591 5 10.35 3.450000000000001 24.15
592 3 10.35 6.9 3.450000000000001
593 4 10.35 6.9 6.9
594 4 10.35 6.9 13.8
595 1 10.35 6.9 17.25
596 1 10.35 6.9 20.7
597 4 10.35 6.9 24.15
598 5 10.35 13.8 6.9
599 2 10.35 13.8 24.15
600 4 10.35 13.8 27.6
601 3 10.35 17.25 3.449999999999999
602 4 10.35 17.25 6.900000000000002
603 1 10.35 17.25 20.7
604 5 10.35 20.7 1.915134717478395e-15
605 2 10.35 20.7 3.450000000000001
606 5 10.35 20.7 6.9
607 1 10.35 20.7 17.25
608 5 10.35 20.7 24.15
609 2 10.35 20.7 27.6
610 4 10.35 24.15 0
611 1 10.35 24.15 3.450000000000003
612 5 10.35 24.15 6.899999999999999
613 2 10.35 24.15 13.8
614 4 10.35 24.15 20.7
615 3 10.35 27.6 13.8
616 1 10.35 27.6 20.7
617 4 10.35 0 0
618 4 10.35 0 3.449999999999999
619 5 10.35 0 10.35
620 5 10.35 0 13.8
621 2 10.35 0 17.25
622 3 10.35 0 27.6
623 2 10.35 9.575673587391975e-16 6.899999999999999
624 2 10.35 3.449999999999999 10.35
625 5 10.35 3.449999999999999 13.8
626 4 10.35 3.449999999999999 27.6
627 4 10.35 3.45 0
628 1 10.35 3.45 3.450000000000001
629 3 10.35 6.899999999999999 10.35
630 1 10.35 6.899999999999999 27.6
631 4 10.35 6.899999999999999 31.05
632 2 10.35 6.899999999999999 0
633 3 10.35 10.35 0
634 4 10.35 10.35 3.449999999999999
635 1 10.35 10.35 6.899999999999999
636 1 10.35 10.35 10.35
637 3 10.35 10.35 13.8
638 5 10.35 10.35 17.25
639 4 10.35 10.35 20.7
640 5 10.35 10.35 24.15
641 1 10.35 10.35 27.6
642 3 10.35 10.35 31.05
643 2 10.35 13.8 0
644 3 10.35 13.8 3.449999999999999
645 5 10.35 13.8 10.35
646 5 10.35 13.8 13.8
647 2 10.35 13.8 17.25
648 3 10.35 13.8 20.7
649 5 10.35 17.25 0
650 2 10.35 17.25 10.35
651 4 10.35 17.25 13.8
652 3 10.35 17.25 17.25
653 1 10.35 17.25 27.6
654 5 10.35 17.25 31.05000000000001
655 5 10.35 20.7 10.35
656 2 10.35 20.7 13.8
657 4 10.35 24.15 10.35
658 3 10.35 24.15 27.6
659 5 10.35 24.15 31.05
660 2 10.35 27.6 0
661 3 10.35 27.6 3.449999999999999
662 5 10.35 27.6 6.899999999999999
663 5 10.35 27.6 10.35
664 4 10.35 27.6 17.25
665 3 10.35 27.6 24.15
666 4 10.35 27.6 27.6
667 5 10.35 27.6 31.05
668 4 10.35 31.05 6.899999999999999
669 4 10.35 31.05 10.35
670 2 10.35 31.05 17.25
671 1 10.35 31.05 24.15
672 5 10.35 31.05 27.6
673 3 10.35 3.449999999999998 31.05
674 2 10.35 13.8 31.05
675 4 10.35 20.7 31.05
676 3 10.35 31.05 0
677 3 10.35 31.05 3.449999999999995
678 5 10.35 31.05 13.8
679 1 10.35 31.05 20.7
680 4 10.35 34.5 31.05
681 3 10.35 31.05 31.05
682 5 12.075 18.975 22.425
683 2 12.075 22.425 18.975
684 3 12.075 1.725000000000001 5.174999999999999
685 4 12.075 1.725000000000001 18.975
686 5 12.075 1.725000000000001 22.425
687 5 12.075 5.175 1.725000000000001
688 3 12.075 5.175000000000001 5.175000000000001
689 5 12.075 5.175000000000001 15.525
690 2 12.075 5.175000000000001 18.975
691 4 12.075 5.175000000000001 22.425
692 2 12.075 5.175000000000001 32.77500000000001
693 4 12.075 8.625000000000004 32.775
694 2 12.075 15.525 5.175000000000001
695 4 12.075 15.525 22.425
696 2 12.075 15.525 25.875
697 2 12.075 15.525 32.77500000000001
698 5 12.075 18.975 1.725
699 1 12.075 18.975 5.175000000000002
700 3 12.075 18.975 18.975
701 4 12.075 22.425 1.725000000000001
702 5 12.075 22.425 5.175000000000001
703 2 12.075 22.425 15.525
704 4 12.075 22.425 22.425
705 2 12.075 22.425 25.875
706 5 12.075 22.425 32.77500000000001
707 1 12.075 25.875 15.525
708 1 12.075 25.875 22.425
709 3 12.075 25.875 32.775
710 1 12.075 32.77500000000001 5.175000000000001
711 3 12.075 32.77500000000001 8.625000000000004
712 5 12.075 32.77500000000001 15.525
713 4 12.075 32.77500000000001 22.425
714 1 12.075 32.77500000000001 25.875
715 3 12.075 32.77500000000001 32.77500000000001
716 5 12.075 1.725 1.725
717 2 12.075 1.725 8.625000000000002
718 3 12.075 1.725 12.075
719 1 12.075 1.725 15.525
720 1 12.075 1.725 25.875
721 5 12.075 1.725 32.775
722 4 12.075 5.174999999999999 8.625
723 1 12.075 5.174999999999999 12.075
724 5 12.075 5.174999999999999 25.875
725 1 12.075 8.625000000000002 1.725
726 4 12.075 8.625000000000002 5.174999999999999
727 4 12.075 8.625000000000002 12.075
728 2 12.075 8.625000000000002 15.525
729 1 12.075 8.625000000000002 18.975
730 2 12.075 8.625000000000002 22.425
731 4 12.075 12.075 1.725
732 4 12.075 12.075 5.174999999999999
733 4 12.075 12.075 8.625000000000002
734 2 12.075 12.075 12.075
735 1 12.075 12.075 15.525
736 2 12.075 12.075 18.975
737 5 12.075 12.075 22.425
738 5 12.075 12.075 25.875
739 1 12.075 12.075 29.325
740 4 12.075 12.075 32.775
741 1 12.075 15.525 1.725
742 4 12.075 15.525 8.625000000000004
743 1 12.075 15.525 12.075
744 2 12.075 15.525 15.525
745 5 12.075 15.525 18.975
746 2 12.075 18.975 8.625000000000002
747 3 12.075 18.975 12.075
748 3 12.075 18.975 15.525
749 3 12.075 18.975 25.87500000000001
750 3 12.075 18.975 29.32500000000001
751 4 12.075 18.975 32.775
752 5 12.075 22.425 8.625
753 3 12.075 22.425 12.075
754 3 12.075 25.875 1.725000000000001
755 5 12.075 25.875 5.174999999999997
756 4 12.075 25.875 12.075
757 4 12.075 25.875 18.975
758 3 12.075 29.325 12.075
759 3 12.075 29.325 18.975
760 4 12.075 32.775 1.724999999999998
761 2 12.075 32.775 12.075
762 3 12.075 32.775 18.975
763 1 12.075 1.724999999999998 29.325
764 5 12.075 5.174999999999997 29.325
765 5 12.075 8.625 8.625
766 2 12.075 8.625 25.875
767 5 12.075 8.625 29.325
768 2 12.075 15.525 29.325
769 4 12.075 22.425 29.325
770 5 12.075 25.875 8.625
771 1 12.075 25.875 25.875
772 5 12.075 25.875 29.325
773 4 12.075 29.325 1.724999999999998
774 2 12.075 29.325 5.174999999999997
775 1 12.075 29.325 8.625
776 3 12.075 29.325 15.525
777 4 12.075 29.325 22.425
778 1 12.075 29.325 25.875
779 3 12.075 29.325 29.325
780 1 12.075 29.325 32.775
781 5 12.075 32.775 29.325
782 1 13.8 20.7 20.7
783 5 13.8 1.915134717478395e-15 20.7
784 1 13.8 3.450000000000001 17.25
785 5 13.8 3.450000000000001 20.7
786 3 13.8 10.35 31.05
787 3 13.8 17.25 3.450000000000001
788 2 13.8 17.25 20.7
789 1 13.8 17.25 24.15000000000001
790 5 13.8 17.25 31.05
791 3 13.8 20.7 0
792 2 13.8 20.7 3.450000000000003
793 3 13.8 20.7 17.25
794 2 13.8 24.15000000000001 17.25
795 1 13.8 31.05 10.35
796 5 13.8 31.05 17.25
797 1 13.8 0 0
798 2 13.8 0 3.449999999999999
799 4 13.8 0 10.35
800 5 13.8 0 13.8
801 2 13.8 0 17.25
802 1 13.8 0 24.15000000000001
803 3 13.8 0 31.05
804 5 13.8 3.449999999999999 0
805 5 13.8 3.449999999999999 6.900000000000002
806 1 13.8 3.449999999999999 10.35
807 1 13.8 3.449999999999999 13.8
808 1 13.8 3.449999999999999 24.15
809 4 13.8 3.449999999999999 31.05
810 2 13.8 3.45 3.449999999999999
811 3 13.8 6.900000000000001 0
812 3 13.8 6.900000000000002 3.449999999999999
813 4 13.8 6.900000000000002 13.8
814 3 13.8 6.900000000000002 17.25
815 4 13.8 6.900000000000002 20.7
816 5 13.8 6.900000000000002 31.05
817 3 13.8 10.35 0
818 2 13.8 10.35 3.449999999999999
819 5 13.8 10.35 10.35
820 1 13.8 10.35 13.8
821 4 13.8 10.35 17.25
822 1 13.8 10.35 20.7
823 2 13.8 13.8 0
824 4 13.8 13.8 3.449999999999999
825 4 13.8 13.8 6.900000000000002
826 5 13.8 13.8 10.35
827 1 13.8 13.8 13.8
828 1 13.8 13.8 17.25
829 3 13.8 13.8 20.7
830 3 13.8 13.8 24.15
831 1 13.8 13.8 27.6
832 1 13.8 13.8 31.05
833 5 13.8 17.25 0
834 4 13.8 17.25 6.900000000000004
835 1 13.8 17.25 10.35
836 2 13.8 17.25 13.8
837 2 13.8 17.25 17.25
838 4 13.8 20.7 6.900000000000002
839 4 13.8 20.7 10.35
840 2 13.8 20.7 13.8
841 1 13.8 20.7 24.15000000000001
842 4 13.8 20.7 27.60000000000001
843 1 13.8 20.7 31.05
844 3 13.8 24.15 0
845 1 13.8 24.15 3.449999999999999
846 5 13.8 24.15 13.8
847 1 13.8 24.15 20.7
848 1 13.8 24.15 24.15
849 1 13.8 24.15 31.05
850 4 13.8 27.6 13.8
851 1 13.8 27.6 20.7
852 1 13.8 27.6 31.05
853 3 13.8 31.05 0
854 2 13.8 31.05 3.449999999999999
855 2 13.8 31.05 6.900000000000002
856 5 13.8 31.05 13.8
857 4 13.8 31.05 20.7
858 3 13.8 31.05 24.15
859 4 13.8 31.05 27.6
860 1 13.8 31.05 31.05
861 2 13.8 34.5 6.9
862 4 13.8 3.449999999999998 27.6
863 2 13.8 6.9 6.899999999999999
864 1 13.8 6.9 10.35
865 2 13.8 6.9 24.15
866 5 13.8 10.35 6.9
867 3 13.8 10.35 24.15
868 1 13.8 10.35 27.6
869 1 13.8 17.25 27.6
870 2 13.8 24.15 6.899999999999999
871 3 13.8 24.15 10.35
872 5 13.8 27.6 0
873 5 13.8 27.6 3.449999999999995
874 3 13.8 27.6 10.35
875 2 13.8 27.6 17.25
876 1 13.8 34.5 27.6
877 5 13.8 6.899999999999999 27.6
878 2 13.8 24.15 27.6
879 3 13.8 27.6 6.899999999999999
880 1 13.8 27.6 24.15
881 2 13.8 27.6 27.6
882 2 15.525 1.725000000000001 18.975
883 3 15.525 12.075 29.325
884 4 15.525 18.975 1.725000000000001
885 2 15.525 18.975 18.975
886 3 15.525 18.975 22.425
887 2 15.525 18.975 29.325
888 3 15.525 22.425 18.975
889 4 15.525 29.325 12.075
890 1 15.525 29.325 18.975
891 5 15.525 29.325 29.325
892 3 15.525 1.725 1.725
893 5 15.525 1.725 8.625
894 3 15.525 1.725 12.075
895 2 15.525 1.725 15.525
896 3 15.525 1.725 22.425
897 1 15.525 1.725 29.325
898 1 15.525 5.175000000000002 15.525
899 1 15.525 5.175000000000002 18.975
900 2 15.525 8.625000000000002 1.725
901 3 15.525 8.625000000000002 12.075
902 3 15.525 8.625000000000002 15.525
903 2 15.525 8.625000000000002 18.975
904 4 15.525 8.625000000000002 29.325
905 1 15.525 8.625000000000002 32.77500000000001
906 5 15.525 12.075 1.725
907 3 15.525 12.075 8.625000000000004
908 1 15.525 12.075 12.075
909 4 15.525 12.075 15.525
910 3 15.525 12.075 18.975
911 3 15.525 15.525 1.725
912 2 15.525 15.525 5.175000000000002
913 4 15.525 15.525 8.625000000000002
914 1 15.525 15.525 12.075
915 5 15.525 15.525 15.525
916 4 15.525 15.525 18.975
917 1 15.525 15.525 22.425
918 1 15.525 15.525 25.87500000000001
919 4 15.525 15.525 29.325
920 2 15.525 15.525 32.77500000000001
921 1 15.525 18.975 5.175000000000004
922 5 15.525 18.975 8.625
923 4 15.525 18.975 12.075
924 3 15.525 18.975 15.525
925 3 15.525 22.425 1.725000000000001
926 4 15.525 22.425 15.525
927 2 15.525 25.87500000000001 15.525
928 1 15.525 29.325 1.724999999999998
929 1 15.525 29.325 8.625000000000004
930 3 15.525 29.325 15.525
931 2 15.525 32.77500000000001 8.625000000000004
932 1 15.525 32.77500000000001 15.525
933 4 15.525 1.724999999999998 25.875
934 2 15.525 1.724999999999998 32.77500000000001
935 4 15.525 1.724999999999999 5.175000000000001
936 2 15.525 5.175000000000001 5.175000000000001
937 3 15.525 5.175000000000001 8.625
938 3 15.525 5.175000000000001 12.075
939 1 15.525 5.175000000000001 22.425
940 2 15.525 5.175000000000001 29.325
941 1 15.525 5.175000000000001 32.775
942 2 15.525 5.175000000000002 1.724999999999998
943 3 15.525 8.625 5.174999999999999
944 5 15.525 8.625 8.625000000000002
945 1 15.525 8.625 22.425
946 1 15.525 12.075 5.175000000000001
947 5 15.525 12.075 22.425
948 5 15.525 12.075 25.875
949 1 15.525 12.075 32.77500000000001
950 4 15.525 18.975 25.875
951 5 15.525 18.975 32.77500000000001
952 3 15.525 22.425 5.175000000000001
953 1 15.525 22.425 8.625
954 4 15.525 22.425 12.075
955 4 15.525 22.425 22.425
956 2 15.525 22.425 25.87500000000001
957 2 15.525 22.425 29.325
958 4 15.525 22.425 32.775
959 2 15.525 25.875 1.724999999999998
960 3 15.525 25.875 12.075
961 4 15.525 25.875 18.97499999999999
962 5 15.525 25.875 22.425
963 3 15.525 25.875 29.325
964 3 15.525 25.875 32.77500000000001
965 3 15.525 29.325 5.175000000000001
966 2 15.525 29.325 22.425
967 1 15.525 29.325 25.875
968 4 15.525 29.325 32.77500000000001
969 1 15.525 32.77500000000001 1.724999999999998
970 3 15.525 32.77500000000001 5.175000000000001
971 5 15.525 32.77500000000001 12.075
972 5 15.525 32.77500000000001 18.975
973 5 15.525 32.77500000000001 22.425
974 1 15.525 32.77500000000001 25.875
975 1 15.525 32.77500000000001 29.325
976 3 15.525 32.77500000000001 32.77500000000001
977 5 15.525 5.174999999999999 25.875
978 1 15.525 8.624999999999998 25.875
979 1 15.525 25.875 5.174999999999997
980 1 15.525 25.875 8.625
981 5 15.52500000000001 25.875 25.875
982 5 17.25 13.8 27.6
983 3 17.25 27.6 13.8
984 3 17.25 0 0
985 2 17.25 0 6.900000000000002
986 4 17.25 0 10.35
987 2 17.25 0 13.8
988 4 17.25 0 17.25
989 2 17.25 0 20.7
990 5 17.25 0 27.6
991 3 17.25 3.450000000000001 6.899999999999999
992 5 17.25 3.450000000000001 10.35
993 3 17.25 3.450000000000001 13.8
994 3 17.25 3.450000000000001 20.7
995 4 17.25 3.450000000000001 27.6
996 2 17.25 3.450000000000001 34.5
997 5 17.25 3.450000000000003 17.25
998 4 17.25 6.9 3.450000000000001
999 4 17.25 6.9 6.9
1000 4 17.25 6.9 10.35
1001 2 17.25 6.9 20.7
1002 1 17.25 6.9 27.59999999999999
1003 1 17.25 6.9 31.05
1004 3 17.25 6.900000000000001 34.5
1005 5 17.25 6.900000000000002 13.8
1006 3 17.25 6.900000000000002 17.25
1007 2 17.25 10.35 3.449999999999999
1008 3 17.25 10.35 6.900000000000002
1009 1 17.25 10.35 20.7
1010 5 17.25 10.35 0
1011 3 17.25 10.35 10.35
1012 4 17.25 10.35 13.8
1013 1 17.25 10.35 17.25
1014 3 17.25 10.35 27.6
1015 2 17.25 10.35 31.05000000000001
1016 5 17.25 13.8 3.450000000000001
1017 4 17.25 13.8 20.7
1018 1 17.25 13.8 24.15000000000001
1019 3 17.25 13.8 31.05
1020 2 17.25 13.8 0
1021 4 17.25 13.8 6.900000000000004
1022 3 17.25 13.8 10.35
1023 1 17.25 13.8 13.8
1024 2 17.25 13.8 17.25
1025 4 17.25 17.25 0
1026 2 17.25 17.25 3.450000000000003
1027 2 17.25 17.25 6.900000000000002
1028 4 17.25 17.25 10.35
1029 4 17.25 17.25 13.8
1030 4 17.25 17.25 17.25
1031 2 17.25 17.25 20.7
1032 1 17.25 17.25 24.15000000000001
1033 4 17.25 17.25 27.6
1034 2 17.25 17.25 31.05
1035 2 17.25 20.7 0
1036 3 17.25 20.7 3.450000000000003
1037 5 17.25 20.7 6.899999999999999
1038 1 17.25 20.7 10.35
1039 1 17.25 20.7 13.8
1040 5 17.25 20.7 17.25
1041 1 17.25 20.7 20.7
1042 4 17.25 20.7 27.6
1043 1 17.25 24.15000000000001 0
1044 2 17.25 24.15000000000001 13.8
1045 2 17.25 24.15000000000001 17.25
1046 1 17.25 27.6 0
1047 3 17.25 27.6 3.449999999999999
1048 1 17.25 27.6 6.900000000000002
1049 3 17.25 27.6 10.35
1050 4 17.25 27.6 17.25
1051 3 17.25 27.6 20.7
1052 3 17.25 27.6 27.6
1053 3 17.25 27.6 31.05000000000001
1054 1 17.25 31.05 6.900000000000002
1055 2 17.25 31.05 10.35
1056 2 17.25 31.05 13.8
1057 3 17.25 31.05 17.25
1058 4 17.25 31.05 27.6
1059 1 17.25 31.05 34.49999999999999
1060 2 17.25 34.5 3.450000000000001
1061 1 17.25 34.5 24.15000000000001
1062 4 17.25 34.5 31.05
1063 3 17.25 3.449999999999999 24.15
1064 3 17.25 3.449999999999999 31.05
1065 3 17.25 3.45 3.449999999999999
1066 4 17.25 6.899999999999999 24.15
1067 2 17.25 10.35 24.15
1068 4 17.25 20.7 24.15
1069 4 17.25 20.7 31.05
1070 1 17.25 24.15 3.449999999999999
1071 3 17.25 24.15 6.899999999999999
1072 2 17.25 24.15 10.35
1073 2 17.25 24.15 20.7
1074 2 17.25 24.15 24.15000000000001
1075 4 17.25 24.15 27.59999999999999
1076 5 17.25 24.15 31.05
1077 2 17.25 27.6 24.15
1078 2 17.25 31.05 3.449999999999999
1079 4 17.25 31.05 20.7
1080 1 17.25 31.05 24.15
1081 3 17.25 31.05 31.05
1082 5 18.975 8.625000000000004 32.77500000000001
1083 4 18.975 15.525 25.875
1084 2 18.975 15.525 32.77500000000001
1085 4 18.975 25.875 15.525
1086 2 18.975 25.875 32.77500000000001
1087 5 18.975 32.77500000000001 8.625
1088 4 18.975 32.77500000000001 15.52500000000001
1089 3 18.975 32.77500000000001 25.875
1090 5 18.975 32.77500000000001 32.77500000000001
1091 1 18.975 1.725 1.725
1092 5 18.975 1.725 22.425
1093 1 18.975 1.725 29.325
1094 5 18.975 1.725000000000001 5.175000000000001
1095 5 18.975 1.725000000000001 8.625
1096 4 18.975 1.725000000000001 12.075
1097 2 18.975 1.725000000000001 15.525
1098 1 18.975 1.725000000000001 18.975
1099 2 18.975 1.725000000000001 25.875
1100 2 18.975 1.725000000000001 32.775
1101 2 18.975 5.174999999999999 22.425
1102 1 18.975 5.174999999999999 29.325
1103 4 18.975 5.175 1.725
1104 1 18.975 5.175000000000001 5.174999999999999
1105 3 18.975 5.175000000000001 8.625000000000002
1106 1 18.975 5.175000000000001 12.075
1107 2 18.975 5.175000000000001 18.975
1108 2 18.975 5.175000000000001 25.875
1109 5 18.975 5.175000000000002 15.525
1110 3 18.975 5.175000000000002 32.775
1111 4 18.975 8.624999999999998 22.425
1112 5 18.975 8.625 1.725000000000001
1113 3 18.975 8.625 5.175000000000001
1114 5 18.975 8.625 8.625
1115 4 18.975 8.625 18.975
1116 3 18.975 8.625 25.875
1117 3 18.975 8.625 29.325
1118 3 18.975 8.625000000000002 12.075
1119 4 18.975 8.625000000000002 15.525
1120 5 18.975 12.075 22.425
1121 4 18.975 12.075 1.725
1122 3 18.975 12.075 5.175000000000002
1123 3 18.975 12.075 18.975
1124 5 18.975 12.075 8.625000000000002
1125 3 18.975 12.075 12.075
1126 5 18.975 12.075 15.525
1127 3 18.975 12.075 25.87500000000001
1128 1 18.975 12.075 29.32500000000001
1129 4 18.975 12.075 32.775
1130 4 18.975 15.525 1.725000000000001
1131 4 18.975 15.525 18.975
1132 5 18.975 15.525 22.425
1133 3 18.975 15.525 29.325
1134 5 18.975 15.525 5.175000000000004
1135 5 18.975 15.525 8.625
1136 2 18.975 15.525 12.075
1137 4 18.975 15.525 15.525
1138 3 18.975 18.975 1.725000000000001
1139 3 18.975 18.975 5.175000000000001
1140 4 18.975 18.975 8.625
1141 4 18.975 18.975 12.075
1142 4 18.975 18.975 15.525
1143 2 18.975 18.975 18.975
1144 1 18.975 18.975 22.425
1145 1 18.975 18.975 25.875
1146 2 18.975 18.975 29.325
1147 5 18.975 18.975 32.775
1148 3 18.975 22.425 1.725000000000001
1149 3 18.975 22.425 5.174999999999997
1150 4 18.975 22.425 8.625
1151 5 18.975 22.425 12.075
1152 4 18.975 22.425 15.525
1153 3 18.975 22.425 18.975
1154 1 18.975 22.425 25.875
1155 1 18.975 22.425 32.775
1156 2 18.975 25.875 1.725000000000001
1157 1 18.975 25.875 5.175000000000001
1158 2 18.975 25.875 8.625
1159 4 18.975 25.875 12.075
1160 3 18.975 25.875 18.975
1161 2 18.975 25.875 22.42500000000001
1162 2 18.975 25.875 25.875
1163 4 18.975 25.875 29.325
1164 4 18.975 29.325 1.724999999999998
1165 5 18.975 29.325 5.175000000000001
1166 3 18.975 29.325 8.625
1167 3 18.975 29.325 12.075
1168 5 18.975 29.325 15.525
1169 3 18.975 29.325 18.975
1170 5 18.975 29.325 25.875
1171 4 18.975 29.325 29.32500000000001
1172 3 18.975 29.325 32.77499999999999
1173 3 18.975 32.775 1.725000000000001
1174 5 18.975 32.775 5.175000000000004
1175 5 18.975 32.775 12.075
1176 1 18.975 32.775 18.975
1177 2 18.975 32.775 22.425
1178 5 18.975 32.775 29.325
1179 2 18.975 22.425 22.425
1180 5 18.975 22.425 29.325
1181 1 18.975 29.325 22.425
1182 5 20.7 10.35 31.05
1183 4 20.7 31.05 10.35
1184 4 20.7 6.900000000000002 13.8
1185 5 20.7 6.900000000000002 31.05
1186 5 20.7 10.35 10.35
1187 2 20.7 10.35 13.8
1188 1 20.7 13.8 6.900000000000002
1189 4 20.7 13.8 10.35
1190 2 20.7 13.8 13.8
1191 4 20.7 13.8 24.15000000000001
1192 3 20.7 13.8 27.60000000000001
1193 5 20.7 13.8 31.05
1194 2 20.7 17.25 24.15
1195 2 20.7 17.25 31.05
1196 3 20.7 24.15 13.8
1197 5 20.7 24.15 17.25
1198 4 20.7 24.15 24.15
1199 1 20.7 24.15 31.05
1200 3 20.7 27.6 13.8
1201 2 20.7 27.6 31.05
1202 4 20.7 31.05 6.900000000000002
1203 1 20.7 31.05 13.8
1204 3 20.7 31.05 17.25
1205 3 20.7 31.05 24.15000000000001
1206 2 20.7 31.05 27.60000000000001
1207 4 20.7 31.05 31.05
1208 5 20.7 0 0
1209 3 20.7 0 3.449999999999999
1210 5 20.7 0 6.899999999999999
1211 2 20.7 0 17.25
1212 1 20.7 0 20.7
1213 4 20.7 0 27.6
1214 3 20.7 1.915134717478395e-15 10.35
1215 1 20.7 1.915134717478395e-15 13.8
1216 2 20.7 1.915134717478395e-15 24.15
1217 2 20.7 1.915134717478395e-15 31.05
1218 1 20.7 3.449999999999999 0
1219 2 20.7 3.449999999999999 20.7
1220 1 20.7 3.449999999999999 27.6
1221 4 20.7 3.450000000000001 3.450000000000001
1222 3 20.7 3.450000000000001 6.9
1223 5 20.7 3.450000000000001 10.35
1224 4 20.7 3.450000000000001 13.8
1225 4 20.7 3.450000000000001 17.25
1226 3 20.7 3.450000000000001 24.15
1227 4 20.7 3.450000000000001 31.05
1228 4 20.7 6.899999999999999 20.7
1229 3 20.7 6.899999999999999 27.6
1230 1 20.7 6.899999999999999 0
1231 3 20.7 6.9 3.449999999999999
1232 4 20.7 6.9 6.900000000000002
1233 2 20.7 6.9 10.35
1234 2 20.7 6.9 17.25
1235 2 20.7 6.9 24.15
1236 4 20.7 10.35 20.7
1237 1 20.7 10.35 1.915134717478395e-15
1238 1 20.7 10.35 3.450000000000001
1239 1 20.7 10.35 6.9
1240 4 20.7 10.35 17.25
1241 3 20.7 10.35 24.15
1242 3 20.7 10.35 27.6
1243 2 20.7 13.8 20.7
1244 4 20.7 13.8 0
1245 2 20.7 13.8 3.450000000000003
1246 3 20.7 13.8 17.25
1247 5 20.7 17.25 0
1248 1 20.7 17.25 3.450000000000003
1249 5 20.7 17.25 6.899999999999999
1250 5 20.7 17.25 10.35
1251 2 20.7 17.25 13.8
1252 3 20.7 17.25 17.25
1253 5 20.7 17.25 20.7
1254 2 20.7 17.25 27.6
1255 1 20.7 20.7 0
1256 4 20.7 20.7 3.449999999999999
1257 3 20.7 20.7 6.899999999999999
1258 3 20.7 20.7 10.35
1259 3 20.7 20.7 13.8
1260 4 20.7 20.7 17.25
1261 4 20.7 20.7 20.7
1262 1 20.7 20.7 24.15
1263 4 20.7 20.7 27.6
1264 3 20.7 20.7 31.05
1265 4 20.7 24.15 3.83026943495679e-15
1266 2 20.7 24.15 3.449999999999999
1267 4 20.7 24.15 6.900000000000002
1268 4 20.7 24.15 10.35
1269 5 20.7 24.15 20.7
1270 4 20.7 24.15 27.6
1271 1 20.7 27.6 0
1272 2 20.7 27.6 3.449999999999999
1273 2 20.7 27.6 6.899999999999999
1274 2 20.7 27.6 10.35
1275 3 20.7 27.6 17.25
1276 5 20.7 27.6 20.70000000000001
1277 2 20.7 27.6 24.15
1278 1 20.7 27.6 27.6
1279 2 20.7 31.05 0
1280 3 20.7 31.05 3.450000000000003
1281 5 20.7 31.05 20.7
1282 5 22.425 8.625000000000002 12.075
1283 2 22.425 8.625000000000002 29.325
1284 4 22.425 8.625000000000002 32.77500000000001
1285 1 22.425 12.075 8.625
1286 5 22.425 12.075 12.075
1287 1 22.425 12.075 29.325
1288 4 22.425 29.325 8.625
1289 1 22.425 29.325 12.075
1290 5 22.425 29.325 29.325
1291 5 22.425 32.77500000000001 8.625
1292 2 22.425 1.725000000000001 8.625000000000002
1293 5 22.425 1.725000000000001 12.075
1294 2 22.425 1.725000000000001 22.425
1295 2 22.425 1.725000000000001 29.325
1296 2 22.425 5.175000000000001 1.725000000000001
1297 3 22.425 5.175000000000001 5.175000000000001
1298 1 22.425 5.175000000000001 8.625
1299 5 22.425 5.175000000000001 12.075
1300 4 22.425 5.175000000000001 15.525
1301 4 22.425 5.175000000000001 22.425
1302 2 22.425 5.175000000000001 29.325
1303 4 22.425 5.175000000000001 32.77500000000001
1304 1 22.425 8.625 1.725
1305 5 22.425 8.625 5.175000000000002
1306 2 22.425 8.625 8.624999999999998
1307 5 22.425 8.625 15.525
1308 4 22.425 8.625 22.425
1309 4 22.425 12.075 1.725000000000001
1310 4 22.425 12.075 5.175000000000001
1311 4 22.425 12.075 15.525
1312 5 22.425 12.075 22.425
1313 3 22.425 12.075 25.875
1314 3 22.425 12.075 32.77500000000001
1315 1 22.425 15.525 5.175000000000001
1316 3 22.425 15.525 8.625
1317 4 22.425 15.525 12.075
1318 2 22.425 15.525 22.425
1319 1 22.425 15.525 25.87500000000001
1320 3 22.425 15.525 29.325
1321 1 22.425 15.525 32.775
1322 2 22.425 18.975 22.425
1323 4 22.425 18.975 29.325
1324 3 22.425 22.425 1.725000000000001
1325 1 22.425 22.425 5.175000000000001
1326 3 22.425 22.425 8.625
1327 4 22.425 22.425 12.075
1328 4 22.425 22.425 15.525
1329 1 22.425 22.425 18.975
1330 2 22.425 22.425 22.425
1331 4 22.425 22.425 25.875
1332 2 22.425 22.425 29.325
1333 4 22.425 22.425 32.77500000000001
1334 4 22.425 25.875 12.075
1335 3 22.425 25.875 15.525
1336 3 22.425 25.875 22.425
1337 1 22.425 25.875 29.325
1338 2 22.425 25.875 32.77500000000001
1339 4 22.425 29.325 1.725000000000001
1340 4 22.425 29.325 5.175000000000001
1341 5 22.425 29.325 15.52500000000001
1342 4 22.425 29.325 18.97500000000001
1343 2 22.425 29.325 22.425
1344 5 22.425 29.325 25.875
1345 1 22.425 29.325 32.77500000000001
1346 2 22.425 32.77500000000001 5.175000000000001
1347 2 22.425 32.77500000000001 12.075
1348 3 22.425 32.77500000000001 15.525
1349 2 22.425 32.77500000000001 22.425
1350 4 22.425 32.77500000000001 25.87500000000001
1351 2 22.425 32.77500000000001 29.325
1352 1 22.425 32.77500000000001 32.775
1353 2 22.425 1.725 1.725
1354 3 22.425 1.725 5.174999999999999
1355 3 22.425 1.725 15.525
1356 3 22.425 1.725 18.975
1357 1 22.425 1.725 25.875
1358 3 22.425 1.725 32.775
1359 5 22.425 5.174999999999999 18.975
1360 4 22.425 5.174999999999999 25.875
1361 2 22.425 8.624999999999998 18.975
1362 3 22.425 8.624999999999998 25.87500000000001
1363 5 22.425 12.075 18.975
1364 1 22.425 15.525 18.975
1365 1 22.425 15.525 1.725000000000001
1366 4 22.425 15.525 15.525
1367 3 22.425 18.975 1.725000000000001
1368 4 22.425 18.975 5.174999999999997
1369 3 22.425 18.975 8.625
1370 2 22.425 18.975 12.075
1371 4 22.425 18.975 15.525
1372 5 22.425 18.975 18.975
1373 1 22.425 18.975 25.875
1374 5 22.425 18.975 32.775
1375 2 22.425 25.875 1.724999999999998
1376 3 22.425 25.875 5.175000000000001
1377 1 22.425 25.875 8.624999999999996
1378 5 22.425 25.875 18.975
1379 5 22.425 25.875 25.875
1380 3 22.425 32.775 1.725000000000001
1381 5 22.425 32.775 18.975
1382 4 24.15 1.915134717478395e-15 6.9
1383 2 24.15 1.915134717478395e-15 10.35
1384 1 24.15 1.915134717478395e-15 20.7
1385 2 24.15 1.915134717478395e-15 27.59999999999999
1386 1 24.15 3.450000000000001 6.900000000000002
1387 3 24.15 3.450000000000001 10.35
1388 3 24.15 3.450000000000001 20.7
1389 5 24.15 3.450000000000001 27.6
1390 3 24.15 6.9 1.915134717478395e-15
1391 4 24.15 6.9 3.450000000000001
1392 1 24.15 6.9 6.9
1393 4 24.15 6.9 10.35
1394 3 24.15 6.9 13.8
1395 5 24.15 6.9 20.7
1396 3 24.15 6.9 27.6
1397 3 24.15 6.9 31.05
1398 2 24.15 10.35 0
1399 3 24.15 10.35 3.450000000000003
1400 4 24.15 10.35 6.899999999999999
1401 2 24.15 10.35 13.8
1402 5 24.15 10.35 20.7
1403 3 24.15 10.35 10.35
1404 3 24.15 10.35 27.6
1405 1 24.15 10.35 31.05
1406 3 24.15 13.8 6.899999999999999
1407 5 24.15 13.8 10.35
1408 2 24.15 13.8 27.6
1409 3 24.15 20.7 3.83026943495679e-15
1410 1 24.15 20.7 3.449999999999999
1411 4 24.15 20.7 6.900000000000002
1412 1 24.15 20.7 10.35
1413 4 24.15 20.7 20.7
1414 3 24.15 20.7 27.6
1415 2 24.15 27.6 0
1416 3 24.15 27.6 3.450000000000003
1417 5 24.15 27.6 6.899999999999999
1418 2 24.15 27.6 10.35
1419 1 24.15 27.6 13.8
1420 5 24.15 27.6 20.7
1421 3 24.15 27.6 27.6
1422 4 24.15 27.6 31.05
1423 1 24.15 31.05 6.899999999999999
1424 2 24.15 31.05 10.35
1425 1 24.15 31.05 27.6
1426 1 24.15 0 0
1427 1 24.15 0 3.449999999999999
1428 3 24.15 0 13.8
1429 1 24.15 0 24.15
1430 2 24.15 0 31.05
1431 3 24.15 3.449999999999999 0
1432 1 24.15 3.449999999999999 3.449999999999999
1433 4 24.15 3.449999999999999 13.8
1434 2 24.15 3.449999999999999 17.25
1435 1 24.15 3.449999999999999 24.15
1436 3 24.15 3.449999999999999 31.05
1437 2 24.15 6.899999999999999 17.25000000000001
1438 5 24.15 6.899999999999999 24.15000000000001
1439 4 24.15 10.35 17.25
1440 3 24.15 10.35 24.15000000000001
1441 5 24.15 13.8 0
1442 1 24.15 13.8 3.449999999999999
1443 4 24.15 13.8 13.8
1444 4 24.15 13.8 20.7
1445 4 24.15 13.8 24.15
1446 3 24.15 13.8 31.05
1447 2 24.15 17.25 3.449999999999999
1448 5 24.15 17.25 6.899999999999999
1449 5 24.15 17.25 10.35
1450 5 24.15 17.25 20.7
1451 3 24.15 17.25 24.15000000000001
1452 3 24.15 17.25 27.59999999999999
1453 4 24.15 17.25 31.05
1454 3 24.15 20.7 13.8
1455 5 24.15 20.7 17.25
1456 1 24.15 20.7 24.15
1457 4 24.15 20.7 31.05
1458 5 24.15 24.15 0
1459 2 24.15 24.15 3.449999999999999
1460 2 24.15 24.15 6.899999999999999
1461 3 24.15 24.15 10.35
1462 3 24.15 24.15 13.8
1463 3 24.15 24.15 17.25
1464 4 24.15 24.15 20.7
1465 1 24.15 24.15 24.15
1466 2 24.15 24.15 27.6
1467 5 24.15 24.15 31.05
1468 1 24.15 27.6 17.25
1469 4 24.15 27.6 24.15000000000001
1470 1 24.15 31.05 0
1471 3 24.15 31.05 3.449999999999999
1472 4 24.15 31.05 13.8
1473 4 24.15 31.05 17.25000000000001
1474 5 24.15 31.05 20.7
1475 1 24.15 31.05 24.15
1476 2 24.15 31.05 31.05
1477 2 24.15000000000001 13.8 17.25
1478 3 24.15000000000001 17.25 0
1479 4 24.15000000000001 17.25 13.8
1480 2 24.15000000000001 17.25 17.25
1481 1 24.15000000000001 34.5 17.25
1482 2 25.875 1.725 1.725
1483 1 25.875 1.725 12.075
1484 4 25.875 1.725 22.425
1485 1 25.875 1.725 29.325
1486 1 25.875 1.725000000000001 5.175000000000001
1487 2 25.875 1.725000000000001 8.625
1488 3 25.875 1.725000000000001 18.975
1489 1 25.875 1.725000000000001 25.875
1490 4 25.875 5.174999999999999 1.725
1491 1 25.875 5.174999999999999 12.075
1492 5 25.875 5.174999999999999 15.525
1493 4 25.875 5.174999999999999 22.425
1494 3 25.875 5.174999999999999 29.325
1495 4 25.875 5.174999999999999 32.77500000000001
1496 3 25.875 5.175000000000001 5.175000000000002
1497 2 25.875 5.175000000000001 8.624999999999998
1498 4 25.875 5.175000000000001 18.975
1499 3 25.875 5.175000000000001 25.875
1500 3 25.875 8.624999999999998 15.52500000000001
1501 5 25.875 8.624999999999998 22.425
1502 1 25.875 8.625 1.725000000000001
1503 4 25.875 8.625 5.175000000000001
1504 5 25.875 8.625 8.625
1505 4 25.875 8.625 12.075
1506 3 25.875 8.625 18.975
1507 1 25.875 8.625 25.875
1508 3 25.875 8.625 29.325
1509 3 25.875 8.625 32.77500000000001
1510 3 25.875 12.075 1.725000000000001
1511 1 25.875 12.075 5.174999999999997
1512 3 25.875 12.075 12.075
1513 5 25.875 12.075 18.975
1514 1 25.875 12.075 8.625
1515 5 25.875 12.075 25.875
1516 1 25.875 12.075 29.325
1517 2 25.875 15.525 5.174999999999997
1518 5 25.875 15.525 8.625
1519 2 25.875 15.52500000000001 25.875
1520 4 25.875 18.975 1.725000000000001
1521 1 25.875 18.975 5.175000000000001
1522 5 25.875 18.975 8.625
1523 3 25.875 18.975 12.075
1524 2 25.875 18.975 18.975
1525 3 25.875 18.975 22.42500000000001
1526 2 25.875 18.975 25.875
1527 1 25.875 18.975 29.325
1528 2 25.875 22.425 1.724999999999998
1529 2 25.875 22.425 5.175000000000001
1530 4 25.875 22.425 8.624999999999996
1531 5 25.875 22.425 18.975
1532 4 25.875 22.425 25.875
1533 3 25.875 25.875 1.725000000000001
1534 1 25.875 25.875 5.175000000000001
1535 5 25.875 25.875 8.625
1536 1 25.875 25.875 12.075
1537 4 25.875 25.875 15.52500000000001
1538 3 25.875 25.875 18.975
1539 2 25.875 25.875 22.425
1540 4 25.875 25.875 25.875
1541 1 25.875 25.875 29.325
1542 2 25.875 25.875 32.77500000000001
1543 2 25.875 29.325 1.725000000000001
1544 1 25.875 29.325 5.174999999999997
1545 4 25.875 29.325 8.625
1546 5 25.875 29.325 12.075
1547 4 25.875 29.325 18.975
1548 5 25.875 29.325 25.875
1549 2 25.875 29.325 29.325
1550 3 25.875 32.77500000000001 5.174999999999997
1551 3 25.875 32.77500000000001 8.625
1552 3 25.875 32.77500000000001 25.875
1553 4 25.875 1.724999999999998 15.525
1554 5 25.875 1.724999999999998 32.77500000000001
1555 3 25.875 12.075 15.525
1556 2 25.875 12.075 22.425
1557 4 25.875 12.075 32.775
1558 4 25.875 15.525 1.724999999999998
1559 2 25.875 15.525 12.075
1560 1 25.875 15.525 18.97499999999999
1561 3 25.875 15.525 22.425
1562 1 25.875 15.525 29.325
1563 5 25.875 15.525 32.77500000000001
1564 2 25.875 18.975 15.525
1565 1 25.875 18.975 32.77500000000001
1566 2 25.875 22.425 12.075
1567 5 25.875 22.425 15.525
1568 1 25.875 22.425 22.425
1569 4 25.875 22.425 29.325
1570 2 25.875 22.425 32.77500000000001
1571 2 25.875 29.325 15.525
1572 2 25.875 29.325 22.425
1573 1 25.875 29.325 32.775
1574 1 25.875 32.77500000000001 1.724999999999998
1575 5 25.875 32.77500000000001 12.075
1576 4 25.875 32.77500000000001 15.52500000000001
1577 3 25.875 32.77500000000001 18.97499999999999
1578 1 25.875 32.77500000000001 22.425
1579 1 25.875 32.77500000000001 29.325
1580 4 25.875 32.77500000000001 32.77500000000001
1581 5 25.87500000000001 15.525 15.525
1582 3 27.6 17.25 24.15
1583 4 27.6 24.15 17.25
1584 5 27.6 24.15 24.15000000000001
1585 4 27.6 0 0
1586 2 27.6 0 3.449999999999999
1587 1 27.6 0 6.899999999999999
1588 2 27.6 0 10.35
1589 4 27.6 0 17.25
1590 5 27.6 0 20.7
1591 3 27.6 0 27.6
1592 1 27.6 1.915134717478395e-15 24.15
1593 5 27.6 3.449999999999998 13.8
1594 4 27.6 3.449999999999998 31.05
1595 2 27.6 3.449999999999999 0
1596 4 27.6 3.449999999999999 10.35
1597 5 27.6 3.449999999999999 20.7
1598 1 27.6 3.449999999999999 27.6
1599 1 27.6 3.450000000000001 3.450000000000001
1600 3 27.6 3.450000000000001 6.9
1601 5 27.6 3.450000000000001 17.25
1602 5 27.6 3.450000000000001 24.15
1603 2 27.6 6.899999999999999 0
1604 2 27.6 6.899999999999999 10.35
1605 2 27.6 6.899999999999999 13.8
1606 1 27.6 6.899999999999999 20.7
1607 3 27.6 6.899999999999999 27.6
1608 1 27.6 6.899999999999999 31.05
1609 4 27.6 6.9 3.450000000000003
1610 5 27.6 6.9 6.899999999999999
1611 1 27.6 6.9 17.25
1612 2 27.6 6.9 24.15
1613 1 27.6 10.35 13.8
1614 3 27.6 10.35 20.7
1615 3 27.6 10.35 0
1616 5 27.6 10.35 3.449999999999999
1617 4 27.6 10.35 6.899999999999999
1618 4 27.6 10.35 10.35
1619 4 27.6 10.35 17.25
1620 5 27.6 10.35 24.15
1621 5 27.6 10.35 27.6
1622 5 27.6 10.35 31.05
1623 2 27.6 13.8 0
1624 5 27.6 13.8 3.449999999999995
1625 1 27.6 13.8 10.35
1626 2 27.6 13.8 17.25
1627 2 27.6 13.8 6.899999999999999
1628 2 27.6 13.8 24.15
1629 5 27.6 13.8 27.6
1630 5 27.6 17.25 13.8
1631 1 27.6 17.25 0
1632 5 27.6 17.25 3.449999999999999
1633 3 27.6 17.25 6.900000000000002
1634 5 27.6 17.25 10.35
1635 1 27.6 17.25 17.25
1636 2 27.6 17.25 20.7
1637 4 27.6 17.25 27.6
1638 4 27.6 17.25 31.05000000000001
1639 3 27.6 20.7 0
1640 4 27.6 20.7 3.449999999999999
1641 3 27.6 20.7 6.899999999999999
1642 3 27.6 20.7 10.35
1643 2 27.6 20.7 17.25
1644 4 27.6 20.7 20.70000000000001
1645 2 27.6 20.7 24.15
1646 5 27.6 20.7 27.6
1647 5 27.6 24.15 0
1648 2 27.6 24.15 3.450000000000003
1649 5 27.6 24.15 6.899999999999999
1650 1 27.6 24.15 10.35
1651 2 27.6 24.15 13.8
1652 3 27.6 24.15 20.7
1653 4 27.6 24.15 27.6
1654 2 27.6 24.15 31.05
1655 2 27.6 27.6 0
1656 2 27.6 27.6 3.449999999999999
1657 5 27.6 27.6 6.899999999999999
1658 5 27.6 27.6 10.35
1659 4 27.6 27.6 13.8
1660 4 27.6 27.6 17.25
1661 1 27.6 27.6 20.7
1662 3 27.6 27.6 24.15
1663 3 27.6 27.6 27.6
1664 4 27.6 27.6 31.05
1665 5 27.6 31.05 0
1666 4 27.6 31.05 3.449999999999995
1667 2 27.6 31.05 6.899999999999999
1668 5 27.6 31.05 10.35
1669 4 27.6 31.05 17.25
1670 2 27.6 31.05 24.15
1671 4 27.6 31.05 27.6
1672 4 27.6 34.5 13.8
1673 4 27.6 34.5 31.05
1674 2 27.6 13.8 13.8
1675 1 27.6 13.8 20.7
1676 5 27.6 13.8 31.05
1677 3 27.6 20.7 13.8
1678 4 27.6 20.7 31.05
1679 5 27.6 31.05 13.8
1680 3 27.6 31.05 20.7
1681 5 27.6 31.05 31.05
1682 4 29.325 1.725000000000001 22.425
1683 3 29.325 5.175000000000001 1.725000000000001
1684 5 29.325 5.175000000000001 5.175000000000001
1685 1 29.325 5.175000000000001 15.525
1686 1 29.325 5.175000000000001 22.425
1687 2 29.325 5.175000000000001 32.77500000000001
1688 1 29.325 8.625000000000004 32.775
1689 2 29.325 15.525 5.175000000000001
1690 2 29.325 15.525 22.425
1691 5 29.325 15.525 25.875
1692 5 29.325 15.525 32.77500000000001
1693 2 29.325 18.975 22.425
1694 3 29.325 22.425 1.725000000000001
1695 1 29.325 22.425 5.175000000000001
1696 5 29.325 22.425 15.52500000000001
1697 2 29.325 22.425 18.97500000000001
1698 4 29.325 22.425 22.425
1699 3 29.325 22.425 25.875
1700 5 29.325 22.425 32.77500000000001
1701 1 29.325 25.875 15.525
1702 4 29.325 25.875 22.425
1703 4 29.325 25.875 32.775
1704 1 29.325 32.77500000000001 5.175000000000001
1705 5 29.325 32.77500000000001 8.625000000000004
1706 1 29.325 32.77500000000001 15.525
1707 1 29.325 32.77500000000001 22.425
1708 4 29.325 32.77500000000001 25.875
1709 5 29.325 32.77500000000001 32.77500000000001
1710 2 29.325 1.724999999999998 12.075
1711 3 29.325 1.724999999999998 29.325
1712 4 29.325 1.725 1.725
1713 1 29.325 1.725 5.174999999999999
1714 2 29.325 1.725 8.625000000000002
1715 4 29.325 1.725 15.525
1716 3 29.325 1.725 18.975
1717 5 29.325 1.725 25.87500000000001
1718 3 29.325 1.725 32.775
1719 1 29.325 5.174999999999997 12.075
1720 3 29.325 5.174999999999997 29.325
1721 3 29.325 5.174999999999999 8.625
1722 1 29.325 5.174999999999999 18.975
1723 1 29.325 5.174999999999999 25.875
1724 3 29.325 8.625 8.625
1725 3 29.325 8.625 12.075
1726 4 29.325 8.625 18.975
1727 2 29.325 8.625 25.875
1728 5 29.325 8.625 29.325
1729 3 29.325 8.625000000000002 1.725000000000001
1730 1 29.325 8.625000000000002 5.174999999999997
1731 1 29.325 8.625000000000002 15.525
1732 4 29.325 8.625000000000002 22.425
1733 4 29.325 12.075 12.075
1734 2 29.325 12.075 18.975
1735 5 29.325 12.075 1.724999999999998
1736 5 29.325 12.075 5.174999999999997
1737 5 29.325 12.075 8.625
1738 2 29.325 12.075 15.525
1739 1 29.325 12.075 22.425
1740 2 29.325 12.075 25.875
1741 5 29.325 12.075 29.325
1742 3 29.325 12.075 32.775
1743 4 29.325 15.525 12.075
1744 2 29.325 15.525 18.975
1745 5 29.325 15.525 29.325
1746 3 29.325 15.525 1.724999999999998
1747 3 29.325 15.525 8.625000000000004
1748 2 29.325 15.525 15.525
1749 5 29.325 18.975 1.724999999999998
1750 1 29.325 18.975 5.175000000000001
1751 1 29.325 18.975 8.625
1752 5 29.325 18.975 12.075
1753 4 29.325 18.975 15.525
1754 5 29.325 18.975 18.975
1755 2 29.325 18.975 25.875
1756 3 29.325 18.975 29.32500000000001
1757 2 29.325 18.975 32.77499999999999
1758 1 29.325 22.425 8.625
1759 1 29.325 22.425 12.075
1760 2 29.325 22.425 29.325
1761 5 29.325 25.875 1.725000000000001
1762 2 29.325 25.875 5.174999999999997
1763 1 29.325 25.875 8.625
1764 5 29.325 25.875 12.075
1765 4 29.325 25.875 18.975
1766 1 29.325 25.875 25.875
1767 3 29.325 25.875 29.325
1768 4 29.325 29.325 1.724999999999998
1769 2 29.325 29.325 5.174999999999997
1770 5 29.325 29.325 8.625
1771 2 29.325 29.325 12.075
1772 1 29.325 29.325 15.525
1773 5 29.325 29.325 18.975
1774 1 29.325 29.325 22.425
1775 2 29.325 29.325 25.875
1776 4 29.325 29.325 29.325
1777 5 29.325 29.325 32.775
1778 1 29.325 32.775 1.724999999999998
1779 4 29.325 32.775 12.075
1780 2 29.325 32.775 18.975
1781 3 29.325 32.775 29.325
1782 2 31.05 1.915134717478395e-15 20.7
1783 1 31.05 3.450000000000001 20.7
1784 4 31.05 20.7 0
1785 5 31.05 20.7 3.450000000000003
1786 4 31.05 20.7 20.7
1787 2 31.05 0 0
1788 4 31.05 0 3.450000000000001
1789 3 31.05 0 13.8
1790 1 31.05 0 24.15000000000001
1791 2 31.05 0 31.05
1792 4 31.05 3.449999999999999 0
1793 4 31.05 3.449999999999999 3.449999999999999
1794 5 31.05 3.449999999999999 6.900000000000002
1795 2 31.05 3.449999999999999 13.8
1796 3 31.05 3.449999999999999 17.25
1797 5 31.05 3.449999999999999 24.15000000000001
1798 3 31.05 3.449999999999999 31.05
1799 1 31.05 6.900000000000002 0
1800 2 31.05 6.900000000000002 3.449999999999999
1801 1 31.05 6.900000000000002 13.8
1802 2 31.05 6.900000000000002 20.7
1803 1 31.05 6.900000000000002 31.05
1804 1 31.05 10.35 31.05
1805 2 31.05 13.8 0
1806 3 31.05 13.8 3.449999999999999
1807 2 31.05 13.8 6.900000000000002
1808 2 31.05 13.8 13.8
1809 5 31.05 13.8 20.7
1810 4 31.05 13.8 24.15
1811 3 31.05 13.8 27.6
1812 3 31.05 13.8 31.05
1813 1 31.05 17.25 3.449999999999999
1814 4 31.05 17.25 20.7
1815 5 31.05 17.25 24.15
1816 5 31.05 17.25 31.05
1817 3 31.05 20.7 6.900000000000002
1818 4 31.05 20.7 13.8
1819 5 31.05 20.7 17.25
1820 1 31.05 20.7 24.15000000000001
1821 5 31.05 20.7 27.60000000000001
1822 4 31.05 20.7 31.05
1823 4 31.05 24.15 0
1824 1 31.05 24.15 3.449999999999999
1825 2 31.05 24.15 13.8
1826 3 31.05 24.15 17.25000000000001
1827 4 31.05 24.15 20.7
1828 1 31.05 24.15 24.15
1829 4 31.05 24.15 31.05
1830 3 31.05 27.6 13.8
1831 1 31.05 27.6 20.7
1832 1 31.05 27.6 31.05
1833 4 31.05 31.05 0
1834 1 31.05 31.05 3.449999999999999
1835 2 31.05 31.05 6.900000000000002
1836 3 31.05 31.05 10.35
1837 5 31.05 31.05 13.8
1838 2 31.05 31.05 17.25
1839 3 31.05 31.05 20.7
1840 3 31.05 31.05 24.15
1841 1 31.05 31.05 27.6
1842 5 31.05 31.05 31.05
1843 3 31.05 3.449999999999998 10.35
1844 5 31.05 3.449999999999998 27.6
1845 4 31.05 6.899999999999999 10.35
1846 2 31.05 6.899999999999999 27.6
1847 3 31.05 6.9 6.899999999999999
1848 4 31.05 6.9 17.25
1849 2 31.05 6.9 24.15
1850 3 31.05 10.35 6.899999999999999
1851 1 31.05 10.35 10.35
1852 4 31.05 10.35 17.25
1853 5 31.05 10.35 24.15
1854 5 31.05 10.35 27.6
1855 2 31.05 10.35 0
1856 4 31.05 10.35 3.449999999999995
1857 3 31.05 10.35 13.8
1858 5 31.05 10.35 20.7
1859 1 31.05 13.8 10.35
1860 4 31.05 13.8 17.25
1861 2 31.05 17.25 6.900000000000002
1862 3 31.05 17.25 10.35
1863 3 31.05 17.25 13.8
1864 1 31.05 17.25 17.25
1865 4 31.05 17.25 27.6
1866 2 31.05 17.25 34.49999999999999
1867 2 31.05 20.7 10.35
1868 3 31.05 24.15 6.899999999999999
1869 5 31.05 24.15 10.35
1870 2 31.05 24.15 27.6
1871 2 31.05 27.6 0
1872 2 31.05 27.6 3.449999999999995
1873 1 31.05 27.6 6.899999999999999
1874 3 31.05 27.6 10.35
1875 2 31.05 27.6 17.25
1876 2 31.05 27.6 24.15
1877 1 31.05 27.6 27.6
1878 5 31.05 34.5 6.9
1879 1 31.05 34.5 10.35
1880 3 31.05 34.5 17.25
1881 1 31.05 34.5 27.6
1882 4 32.775 1.725 1.725000000000001
1883 4 32.775 1.725 12.075
1884 1 32.775 1.725 22.425
1885 2 32.775 1.725 29.325
1886 3 32.775 1.725000000000001 18.975
1887 2 32.775 5.175000000000002 18.975
1888 5 32.775 12.075 1.724999999999998
1889 5 32.775 12.075 12.075
1890 2 32.775 12.075 18.975
1891 5 32.775 12.075 29.325
1892 4 32.775 18.975 1.725000000000001
1893 4 32.775 18.975 5.175000000000004
1894 2 32.775 18.975 12.075
1895 1 32.775 18.975 18.975
1896 3 32.775 18.975 22.425
1897 1 32.775 18.975 29.325
1898 3 32.775 22.425 1.725000000000001
1899 4 32.775 22.425 18.975
1900 2 32.775 29.325 1.724999999999998
1901 1 32.775 29.325 12.075
1902 2 32.775 29.325 18.975
1903 1 32.775 29.325 29.325
1904 2 32.77500000000001 1.724999999999998 5.175000000000001
1905 5 32.77500000000001 1.724999999999998 8.625000000000004
1906 2 32.77500000000001 1.724999999999998 15.525
1907 3 32.77500000000001 1.724999999999998 25.875
1908 1 32.77500000000001 1.724999999999998 32.77500000000001
1909 1 32.77500000000001 5.175000000000001 1.724999999999998
1910 5 32.77500000000001 5.175000000000001 5.175000000000001
1911 4 32.77500000000001 5.175000000000001 12.075
1912 1 32.77500000000001 5.175000000000001 15.525
1913 5 32.77500000000001 5.175000000000001 22.425
1914 5 32.77500000000001 5.175000000000001 29.325
1915 2 32.77500000000001 5.175000000000001 32.775
1916 5 32.77500000000001 8.625000000000004 1.724999999999998
1917 1 32.77500000000001 8.625000000000004 12.075
1918 3 32.77500000000001 8.625000000000004 18.97499999999999
1919 5 32.77500000000001 8.625000000000004 29.325
1920 2 32.77500000000001 8.625000000000004 32.77500000000001
1921 2 32.77500000000001 12.075 5.175000000000001
1922 3 32.77500000000001 12.075 8.625000000000004
1923 5 32.77500000000001 12.075 15.525
1924 1 32.77500000000001 12.075 22.425
1925 2 32.77500000000001 12.075 25.875
1926 4 32.77500000000001 12.075 32.77500000000001
1927 1 32.77500000000001 15.525 1.724999999999998
1928 1 32.77500000000001 15.525 5.175000000000001
1929 1 32.77500000000001 15.525 12.075
1930 5 32.77500000000001 15.525 18.975
1931 1 32.77500000000001 15.525 22.425
1932 5 32.77500000000001 15.525 25.875
1933 4 32.77500000000001 15.525 29.325
1934 5 32.77500000000001 15.525 32.77500000000001
1935 3 32.77500000000001 18.975 8.625
1936 3 32.77500000000001 18.975 15.52500000000001
1937 1 32.77500000000001 18.975 25.875
1938 5 32.77500000000001 18.975 32.77500000000001
1939 1 32.77500000000001 22.425 5.175000000000001
1940 3 32.77500000000001 22.425 12.075
1941 3 32.77500000000001 22.425 15.525
1942 5 32.77500000000001 22.425 22.425
1943 4 32.77500000000001 22.425 25.87500000000001
1944 2 32.77500000000001 22.425 29.325
1945 3 32.77500000000001 22.425 32.775
1946 3 32.77500000000001 25.875 1.724999999999998
1947 5 32.77500000000001 25.875 12.075
1948 3 32.77500000000001 25.875 15.52500000000001
1949 4 32.77500000000001 25.875 18.97499999999999
1950 1 32.77500000000001 25.875 22.425
1951 4 32.77500000000001 25.875 29.325
1952 5 32.77500000000001 25.875 32.77500000000001
1953 4 32.77500000000001 29.325 5.175000000000001
1954 5 32.77500000000001 29.325 8.625000000000004
1955 5 32.77500000000001 29.325 15.525
1956 2 32.77500000000001 29.325 22.425
1957 4 32.77500000000001 29.325 25.875
1958 3 32.77500000000001 29.325 32.77500000000001
1959 4 32.77500000000001 32.77500000000001 1.724999999999998
1960 4 32.77500000000001 32.77500000000001 5.175000000000001
1961 2 32.77500000000001 32.77500000000001 8.625000000000004
1962 1 32.77500000000001 32.77500000000001 12.075
1963 3 32.77500000000001 32.77500000000001 15.525
1964 1 32.77500000000001 32.77500000000001 18.975
1965 2 32.77500000000001 32.77500000000001 22.425
1966 5 32.77500000000001 32.77500000000001 25.875
1967 4 32.77500000000001 32.77500000000001 29.325
1968 4 32.77500000000001 32.77500000000001 32.77500000000001
1969 2 32.77500000000001 5.174999999999999 8.625
1970 5 32.77500000000001 5.174999999999999 25.875
1971 2 32.77500000000001 8.625 8.625
1972 1 32.77500000000001 8.625 25.875
1973 2 32.77500000000001 8.625000000000002 5.174999999999997
1974 5 32.77500000000001 8.625000000000002 15.525
1975 4 32.77500000000001 8.625000000000002 22.425
1976 1 32.77500000000001 15.525 8.625000000000004
1977 2 32.77500000000001 15.525 15.525
1978 1 32.77500000000001 22.425 8.625
1979 4 32.77500000000001 25.875 5.174999999999997
1980 1 32.77500000000001 25.875 8.625
1981 4 32.77500000000001 25.875 25.875
1982 5 34.5 3.450000000000001 6.9
1983 1 34.5 3.450000000000002 17.25
1984 3 34.5 6.9 3.45
1985 3 34.5 6.900000000000001 13.8
1986 4 34.5 6.900000000000001 17.25
1987 2 34.5 6.900000000000001 31.05
1988 4 34.5 10.35 31.05
1989 5 34.5 13.8 6.9
1990 3 34.5 13.8 27.6
1991 1 34.5 17.25 3.450000000000001
1992 4 34.5 17.25 24.15000000000001
1993 5 34.5 17.25 31.05
1994 3 34.5 24.15000000000001 17.25
1995 2 34.5 27.6 13.8
1996 5 34.5 27.6 31.05
1997 5 34.5 31.05 6.9
1998 2 34.5 31.05 10.35
1999 3 34.5 31.05 17.25
2000 2 34.5 31.05 27.6
