# BCC HfMoTaTiZr; n=2000; seed=20264861

2000 atoms
5 atom types

0.0 34.5 xlo xhi
0.0 34.5 ylo yhi
0.0 34.5 zlo zhi
0 0 0 xy xz yz

Masses

1 178.49 # Hf
2 95.95 # Mo
3 180.94788 # Ta
4 47.867 # Ti
5 91.224 # Zr

Atoms # atomic

1 4 0 0 0
2 2 0 0 3.45
3 1 0 0 6.9
4 4 0 0 10.35
5 3 0 0 13.8
6 3 0 0 17.25
7 5 0 0 20.7
8 4 0 0 24.15
9 2 0 0 27.6
10 3 0 0 31.05
11 3 0 3.45 0
12 2 0 3.45 3.450000000000001
13 5 0 6.9 0
14 1 0 6.9 6.900000000000001
15 3 0 10.35 0
16 4 0 10.35 3.449999999999999
17 2 0 10.35 10.35
18 4 0 10.35 13.8
19 4 0 10.35 17.25
20 2 0 10.35 27.6
21 3 0 13.8 0
22 2 0 13.8 3.449999999999999
23 5 0 13.8 10.35
24 3 0 13.8 13.8
25 1 0 13.8 17.25
26 4 0 13.8 24.15000000000001
27 1 0 13.8 31.05
28 5 0 17.25 0
29 5 0 17.25 6.900000000000002
30 3 0 17.25 10.35
31 2 0 17.25 13.8
32 2 0 17.25 17.25
33 3 0 17.25 20.7
34 4 0 17.25 27.6
35 4 0 20.7 0
36 1 0 20.7 3.449999999999999
37 1 0 20.7 6.899999999999999
38 5 0 20.7 17.25
39 2 0 20.7 20.7
40 5 0 20.7 27.6
41 5 0 24.15 0
42 4 0 24.15 3.449999999999999
43 3 0 24.15 13.8
44 1 0 24.15 24.15
45 4 0 24.15 31.05
46 3 0 27.6 0
47 3 0 27.6 3.449999999999999
48 1 0 27.6 6.899999999999999
49 4 0 27.6 10.35
50 3 0 27.6 17.25
51 4 0 27.6 20.7
52 3 0 27.6 27.6
53 1 0 31.05 0
54 2 0 31.05 3.450000000000001
55 1 0 31.05 13.8
56 3 0 31.05 24.15000000000001
57 5 0 31.05 31.05
58 1 4.787836793695988e-16 3.45 10.35
59 1 4.787836793695988e-16 3.45 13.8
60 2 4.787836793695988e-16 3.45 20.7
61 4 4.787836793695988e-16 3.45 24.15
62 4 4.787836793695988e-16 3.45 27.6
63 5 4.787836793695988e-16 3.45 31.05
64 3 9.575673587391975e-16 6.899999999999999 10.35
65 2 9.575673587391975e-16 6.899999999999999 20.7
66 3 9.575673587391975e-16 6.899999999999999 24.15
67 2 9.575673587391975e-16 6.899999999999999 27.6
68 1 9.575673587391975e-16 10.35 6.899999999999999
69 3 1.915134717478395e-15 10.35 20.7
70 5 1.915134717478395e-15 10.35 24.15
71 4 1.915134717478395e-15 13.8 20.7
72 3 1.915134717478395e-15 20.7 10.35
73 5 1.915134717478395e-15 20.7 13.8
74 1 1.915134717478395e-15 20.7 24.15
75 4 1.915134717478395e-15 20.7 31.05
76 1 1.915134717478395e-15 24.15 6.9
77 4 1.915134717478395e-15 24.15 10.35
78 5 1.915134717478395e-15 24.15 20.7
79 5 1.915134717478395e-15 24.15 27.59999999999999
80 2 1.915134717478395e-15 27.6 24.15
81 5 1.915134717478395e-15 31.05 20.7
82 4 1.724999999999998 8.625000000000004 32.77500000000001
83 2 1.724999999999998 12.075 29.325
84 1 1.724999999999998 15.525 25.875
85 5 1.724999999999998 15.525 32.77500000000001
86 4 1.724999999999998 25.875 15.525
87 5 1.724999999999998 25.875 32.77500000000001
88 4 1.724999999999998 29.325 12.075
89 5 1.724999999999998 29.325 29.325
90 3 1.724999999999998 32.77500000000001 5.175000000000001
91 1 1.724999999999998 32.77500000000001 8.625000000000004
92 3 1.724999999999998 32.77500000000001 15.525
93 2 1.724999999999998 32.77500000000001 25.875
94 2 1.724999999999998 32.77500000000001 32.77500000000001
95 1 1.724999999999999 5.175000000000002 15.525
96 3 1.724999999999999 5.175000000000002 32.77500000000001
97 2 1.724999999999999 15.525 5.175000000000001
98 3 1.725 5.175000000000001 5.175
99 4 1.725 8.625000000000002 12.075
100 1 1.725 8.625000000000002 15.525
101 1 1.725 8.625000000000002 29.325
102 2 1.725 12.075 1.725
103 5 1.725 12.075 8.625000000000002
104 2 1.725 12.075 12.075
105 1 1.725 12.075 15.525
106 5 1.725 12.075 25.875
107 2 1.725 12.075 32.775
108 1 1.725 15.525 1.725
109 1 1.725 15.525 8.625
110 2 1.725 15.525 12.075
111 3 1.725 15.525 15.525
112 2 1.725 15.525 22.425
113 3 1.725 15.525 29.325
114 2 1.725 18.975 1.725
115 1 1.725 18.975 22.425
116 3 1.725 18.975 29.325
117 5 1.725 22.425 1.725
118 5 1.725 22.425 5.174999999999999
119 1 1.725 22.425 15.525
120 1 1.725 22.425 18.975
121 5 1.725 22.425 25.875
122 5 1.725 22.425 32.775
123 5 1.725 25.875 1.725
124 2 1.725 25.875 12.075
125 5 1.725 25.875 22.425
126 4 1.725 25.875 29.325
127 5 1.725 29.325 1.725
128 2 1.725 29.325 5.174999999999999
129 4 1.725 29.325 8.625000000000002
130 1 1.725 29.325 15.525
131 1 1.725 29.325 18.975
132 5 1.725 29.325 25.87500000000001
133 3 1.725 29.325 32.775
134 5 1.725 32.775 1.725000000000001
135 5 1.725 32.775 12.075
136 2 1.725 32.775 22.425
137 2 1.725 32.775 29.325
138 5 1.725 1.725 1.725
139 3 1.725 1.725 5.175000000000001
140 2 1.725 1.725 8.625000000000002
141 5 1.725 1.725 12.075
142 1 1.725 1.725 15.525
143 2 1.725 1.725 18.975
144 3 1.725 1.725 22.425
145 1 1.725 1.725 25.875
146 3 1.725 1.725 29.325
147 5 1.725 1.725 32.775
148 1 1.725 5.175000000000001 1.725000000000001
149 4 1.725 8.625000000000002 1.725
150 2 1.725000000000001 5.175 8.625
151 2 1.725000000000001 5.175 12.075
152 3 1.725000000000001 5.175 18.975
153 4 1.725000000000001 5.175 22.425
154 2 1.725000000000001 5.175 25.875
155 4 1.725000000000001 5.175 29.325
156 2 1.725000000000001 8.625 5.175000000000001
157 1 1.725000000000001 12.075 5.174999999999999
158 1 1.725000000000001 8.625 8.625
159 2 1.725000000000001 8.625 18.975
160 3 1.725000000000001 8.625 22.425
161 2 1.725000000000001 8.625 25.875
162 1 1.725000000000001 12.075 18.975
163 3 1.725000000000001 12.075 22.425
164 1 1.725000000000001 15.525 18.975
165 4 1.725000000000001 18.975 5.175000000000001
166 1 1.725000000000001 18.975 8.625
167 4 1.725000000000001 18.975 12.075
168 3 1.725000000000001 18.975 15.525
169 2 1.725000000000001 18.975 18.975
170 4 1.725000000000001 18.975 25.875
171 3 1.725000000000001 18.975 32.775
172 1 1.725000000000001 22.425 8.625000000000002
173 2 1.725000000000001 22.425 12.075
174 4 1.725000000000001 22.425 22.425
175 2 1.725000000000001 22.425 29.325
176 5 1.725000000000001 25.875 5.175000000000001
177 2 1.725000000000001 25.875 8.625
178 1 1.725000000000001 25.875 18.975
179 2 1.725000000000001 25.875 25.875
180 4 1.725000000000001 29.325 22.425
181 2 1.725000000000001 32.775 18.975
182 4 3.449999999999998 10.35 31.05
183 3 3.449999999999998 13.8 27.6
184 3 3.449999999999998 27.6 13.8
185 1 3.449999999999998 27.6 31.05
186 4 3.449999999999998 31.05 10.35
187 5 3.449999999999998 31.05 27.6
188 4 3.449999999999999 6.900000000000002 13.8
189 3 3.449999999999999 6.900000000000002 31.05
190 2 3.449999999999999 10.35 10.35
191 5 3.449999999999999 10.35 13.8
192 4 3.449999999999999 10.35 27.6
193 4 3.449999999999999 13.8 0
194 4 3.449999999999999 13.8 6.900000000000002
195 2 3.449999999999999 13.8 10.35
196 1 3.449999999999999 13.8 13.8
197 5 3.449999999999999 13.8 24.15
198 5 3.449999999999999 13.8 31.05
199 4 3.449999999999999 17.25 24.15
200 2 3.449999999999999 17.25 31.05
201 4 3.449999999999999 20.7 0
202 5 3.449999999999999 20.7 20.7
203 5 3.449999999999999 20.7 27.6
204 3 3.449999999999999 24.15 0
205 4 3.449999999999999 24.15 3.449999999999999
206 3 3.449999999999999 24.15 13.8
207 3 3.449999999999999 24.15 17.25
208 4 3.449999999999999 24.15 24.15
209 2 3.449999999999999 24.15 31.05
210 3 3.449999999999999 27.6 0
211 5 3.449999999999999 27.6 10.35
212 1 3.449999999999999 27.6 20.7
213 4 3.449999999999999 27.6 27.6
214 1 3.449999999999999 31.05 0
215 3 3.449999999999999 31.05 3.449999999999999
216 3 3.449999999999999 31.05 6.900000000000002
217 5 3.449999999999999 31.05 13.8
218 3 3.449999999999999 31.05 17.25
219 3 3.449999999999999 31.05 24.15000000000001
220 5 3.449999999999999 31.05 31.05
221 1 3.45 4.787836793695988e-16 10.35
222 1 3.45 4.787836793695988e-16 13.8
223 5 3.45 4.787836793695988e-16 20.7
224 5 3.45 4.787836793695988e-16 24.15
225 3 3.45 4.787836793695988e-16 27.6
226 4 3.45 4.787836793695988e-16 31.05
227 1 3.45 10.35 0
228 5 3.45 0 0
229 3 3.45 0 3.450000000000001
230 4 3.45 3.45 0
231 1 3.45 3.45 3.45
232 3 3.45 3.45 6.900000000000001
233 5 3.45 3.45 10.35
234 1 3.45 3.45 13.8
235 2 3.45 3.45 17.25
236 1 3.45 3.45 20.7
237 1 3.45 3.45 24.15
238 1 3.45 3.45 27.6
239 5 3.45 3.45 31.05
240 5 3.45 6.900000000000001 3.449999999999999
241 1 3.45 10.35 3.450000000000001
242 4 3.45 13.8 3.449999999999999
243 1 3.45 17.25 3.449999999999999
244 5 3.450000000000001 6.9 0
245 4 3.450000000000001 34.5 6.9
246 4 3.450000000000001 6.9 6.9
247 4 3.450000000000001 6.9 10.35
248 4 3.450000000000001 6.9 17.25
249 5 3.450000000000001 6.9 20.7
250 3 3.450000000000001 6.9 24.15
251 4 3.450000000000001 6.9 27.6
252 4 3.450000000000001 10.35 6.9
253 1 3.450000000000001 10.35 17.25
254 1 3.450000000000001 10.35 20.7
255 4 3.450000000000001 10.35 24.15
256 3 3.450000000000001 13.8 17.25
257 5 3.450000000000001 13.8 20.7
258 5 3.450000000000001 17.25 6.899999999999999
259 5 3.450000000000001 17.25 10.35
260 1 3.450000000000001 17.25 13.8
261 1 3.450000000000001 17.25 20.7
262 3 3.450000000000001 17.25 27.6
263 3 3.450000000000001 17.25 34.5
264 4 3.450000000000001 20.7 3.450000000000001
265 1 3.450000000000001 20.7 6.9
266 2 3.450000000000001 20.7 10.35
267 3 3.450000000000001 20.7 13.8
268 4 3.450000000000001 20.7 17.25
269 2 3.450000000000001 20.7 24.15
270 4 3.450000000000001 20.7 31.05
271 2 3.450000000000001 24.15 6.900000000000002
272 1 3.450000000000001 24.15 10.35
273 1 3.450000000000001 24.15 20.7
274 2 3.450000000000001 24.15 27.6
275 1 3.450000000000001 27.6 3.450000000000001
276 4 3.450000000000001 27.6 6.9
277 3 3.450000000000001 27.6 17.25
278 1 3.450000000000001 27.6 24.15
279 1 3.450000000000001 31.05 20.7
280 4 3.450000000000002 34.5 17.25
281 2 3.450000000000003 17.25 17.25
282 1 5.174999999999997 12.075 29.325
283 5 5.174999999999997 29.325 12.075
284 1 5.174999999999997 29.325 29.325
285 3 5.174999999999999 8.625000000000002 12.075
286 1 5.174999999999999 8.625000000000002 29.325
287 3 5.174999999999999 8.625000000000002 32.77500000000001
288 5 5.174999999999999 12.075 8.625
289 2 5.174999999999999 12.075 12.075
290 1 5.174999999999999 12.075 25.875
291 4 5.174999999999999 15.525 25.875
292 2 5.174999999999999 18.975 22.425
293 1 5.174999999999999 18.975 29.325
294 5 5.174999999999999 22.425 18.975
295 3 5.174999999999999 22.425 25.875
296 1 5.174999999999999 25.875 1.725
297 3 5.174999999999999 25.875 12.075
298 5 5.174999999999999 25.875 15.525
299 3 5.174999999999999 25.875 22.425
300 5 5.174999999999999 25.875 29.325
301 1 5.174999999999999 25.875 32.77500000000001
302 1 5.174999999999999 29.325 8.625
303 2 5.174999999999999 29.325 18.975
304 4 5.174999999999999 29.325 25.875
305 1 5.174999999999999 32.77500000000001 8.625
306 1 5.174999999999999 32.77500000000001 25.875
307 2 5.175 1.725000000000001 8.625
308 4 5.175 1.725000000000001 12.075
309 4 5.175 1.725000000000001 18.975
310 4 5.175 1.725000000000001 22.425
311 4 5.175 1.725000000000001 25.875
312 4 5.175 1.725000000000001 29.325
313 5 5.175 8.625 1.725
314 4 5.175 12.075 1.725000000000001
315 3 5.175 18.975 1.725
316 5 5.175000000000001 1.725 5.175
317 3 5.175000000000001 1.725 1.725000000000001
318 1 5.175000000000001 5.175000000000001 1.725
319 4 5.175000000000001 5.175000000000001 5.175000000000001
320 3 5.175000000000001 5.175000000000001 8.625
321 2 5.175000000000001 5.175000000000001 12.075
322 1 5.175000000000001 5.175000000000001 15.525
323 3 5.175000000000001 5.175000000000001 18.975
324 3 5.175000000000001 5.175000000000001 22.425
325 3 5.175000000000001 5.175000000000001 25.875
326 5 5.175000000000001 5.175000000000001 29.325
327 3 5.175000000000001 5.175000000000001 32.77500000000001
328 3 5.175000000000001 8.625 5.175000000000001
329 3 5.175000000000001 8.625 8.625
330 1 5.175000000000001 8.625 15.525
331 4 5.175000000000001 8.625 18.975
332 4 5.175000000000001 8.625 22.425
333 1 5.175000000000001 8.625 25.875
334 4 5.175000000000001 12.075 5.175000000000001
335 4 5.175000000000001 12.075 15.525
336 3 5.175000000000001 12.075 18.975
337 1 5.175000000000001 12.075 22.425
338 2 5.175000000000001 12.075 32.77500000000001
339 4 5.175000000000001 15.525 5.175000000000001
340 2 5.175000000000001 15.525 8.625
341 1 5.175000000000001 15.525 12.075
342 4 5.175000000000001 15.525 22.425
343 1 5.175000000000001 15.525 29.325
344 4 5.175000000000001 15.525 32.775
345 2 5.175000000000001 18.975 5.174999999999999
346 1 5.175000000000001 18.975 8.625000000000002
347 1 5.175000000000001 18.975 12.075
348 1 5.175000000000001 18.975 18.975
349 3 5.175000000000001 18.975 25.875
350 4 5.175000000000001 22.425 1.725000000000001
351 3 5.175000000000001 22.425 5.175000000000001
352 2 5.175000000000001 22.425 8.625
353 1 5.175000000000001 22.425 12.075
354 2 5.175000000000001 22.425 15.525
355 5 5.175000000000001 22.425 22.425
356 3 5.175000000000001 22.425 29.325
357 4 5.175000000000001 22.425 32.77500000000001
358 5 5.175000000000001 25.875 5.175000000000002
359 3 5.175000000000001 25.875 8.624999999999998
360 1 5.175000000000001 25.875 18.975
361 1 5.175000000000001 25.875 25.875
362 3 5.175000000000001 29.325 1.725000000000001
363 2 5.175000000000001 29.325 5.175000000000001
364 5 5.175000000000001 29.325 15.525
365 3 5.175000000000001 29.325 22.425
366 3 5.175000000000001 29.325 32.77500000000001
367 5 5.175000000000001 32.77500000000001 1.724999999999998
368 5 5.175000000000001 32.77500000000001 5.175000000000001
369 4 5.175000000000001 32.77500000000001 12.075
370 2 5.175000000000001 32.77500000000001 15.525
371 5 5.175000000000001 32.77500000000001 22.425
372 4 5.175000000000001 32.77500000000001 29.325
373 4 5.175000000000001 32.77500000000001 32.775
374 3 5.175000000000002 1.724999999999999 15.525
375 1 5.175000000000002 1.724999999999999 32.77500000000001
376 4 5.175000000000002 15.525 1.724999999999998
377 4 5.175000000000002 15.525 15.525
378 5 5.175000000000002 15.525 18.975
379 1 5.175000000000002 18.975 15.525
380 2 5.175000000000002 18.975 32.775
381 5 5.175000000000002 32.775 18.975
382 2 6.899999999999999 10.35 10.35
383 1 6.899999999999999 10.35 27.6
384 4 6.899999999999999 10.35 31.05
385 1 6.899999999999999 13.8 27.6
386 5 6.899999999999999 17.25 24.15
387 2 6.899999999999999 20.7 20.7
388 2 6.899999999999999 20.7 27.6
389 2 6.899999999999999 24.15 17.25000000000001
390 5 6.899999999999999 24.15 24.15000000000001
391 5 6.899999999999999 27.6 0
392 4 6.899999999999999 27.6 10.35
393 2 6.899999999999999 27.6 13.8
394 2 6.899999999999999 27.6 20.7
395 2 6.899999999999999 27.6 27.6
396 3 6.899999999999999 27.6 31.05
397 1 6.899999999999999 31.05 10.35
398 3 6.899999999999999 31.05 27.6
399 1 6.899999999999999 9.575673587391975e-16 10.35
400 2 6.899999999999999 9.575673587391975e-16 20.7
401 1 6.899999999999999 9.575673587391975e-16 24.15
402 2 6.899999999999999 9.575673587391975e-16 27.6
403 5 6.899999999999999 10.35 0
404 4 6.899999999999999 20.7 0
405 4 6.9 0 0
406 2 6.9 0 6.900000000000001
407 1 6.9 3.450000000000001 0
408 4 6.9 3.450000000000001 6.9
409 1 6.9 3.450000000000001 10.35
410 1 6.9 3.450000000000001 17.25
411 5 6.9 3.450000000000001 20.7
412 2 6.9 3.450000000000001 24.15
413 4 6.9 3.450000000000001 27.6
414 2 6.9 6.9 0
415 2 6.9 6.9 3.450000000000001
416 2 6.9 6.9 6.9
417 1 6.9 6.9 10.35
418 1 6.9 6.9 13.8
419 3 6.9 6.9 17.25
420 2 6.9 6.9 20.7
421 1 6.9 6.9 24.15
422 1 6.9 6.9 27.6
423 1 6.9 6.9 31.05
424 5 6.9 10.35 3.450000000000001
425 3 6.9 10.35 6.9
426 3 6.9 10.35 13.8
427 5 6.9 10.35 17.25
428 5 6.9 10.35 20.7
429 3 6.9 10.35 24.15
430 2 6.9 13.8 6.899999999999999
431 4 6.9 13.8 10.35
432 3 6.9 13.8 24.15
433 2 6.9 17.25 3.450000000000001
434 2 6.9 17.25 6.9
435 2 6.9 17.25 10.35
436 1 6.9 17.25 20.7
437 4 6.9 17.25 27.59999999999999
438 3 6.9 17.25 31.05
439 5 6.9 20.7 3.449999999999999
440 5 6.9 20.7 6.900000000000002
441 5 6.9 20.7 10.35
442 4 6.9 20.7 17.25
443 1 6.9 20.7 24.15
444 4 6.9 24.15 1.915134717478395e-15
445 5 6.9 24.15 3.450000000000001
446 5 6.9 24.15 6.9
447 5 6.9 24.15 10.35
448 1 6.9 24.15 13.8
449 2 6.9 24.15 20.7
450 1 6.9 24.15 27.6
451 3 6.9 24.15 31.05
452 2 6.9 27.6 3.450000000000003
453 2 6.9 27.6 6.899999999999999
454 4 6.9 27.6 17.25
455 4 6.9 27.6 24.15
456 4 6.9 31.05 6.899999999999999
457 2 6.9 31.05 17.25
458 2 6.9 31.05 24.15
459 5 6.9 34.5 3.45
460 1 6.900000000000001 3.45 3.449999999999999
461 5 6.900000000000001 13.8 0
462 5 6.900000000000001 17.25 34.5
463 3 6.900000000000001 34.5 13.8
464 5 6.900000000000001 34.5 17.25
465 2 6.900000000000001 34.5 31.05
466 1 6.900000000000002 3.449999999999999 13.8
467 3 6.900000000000002 3.449999999999999 31.05
468 3 6.900000000000002 13.8 3.449999999999999
469 4 6.900000000000002 13.8 13.8
470 2 6.900000000000002 13.8 17.25
471 3 6.900000000000002 13.8 20.7
472 2 6.900000000000002 13.8 31.05
473 1 6.900000000000002 17.25 13.8
474 3 6.900000000000002 17.25 17.25
475 2 6.900000000000002 20.7 13.8
476 5 6.900000000000002 20.7 31.05
477 1 6.900000000000002 31.05 0
478 3 6.900000000000002 31.05 3.449999999999999
479 2 6.900000000000002 31.05 13.8
480 2 6.900000000000002 31.05 20.7
481 2 6.900000000000002 31.05 31.05
482 3 8.624999999999998 15.525 25.875
483 2 8.624999999999998 18.975 22.425
484 1 8.624999999999998 22.425 18.975
485 5 8.624999999999998 22.425 25.87500000000001
486 2 8.624999999999998 25.875 15.52500000000001
487 5 8.624999999999998 25.875 22.425
488 1 8.625 1.725000000000001 5.175000000000001
489 2 8.625 1.725000000000001 8.625
490 1 8.625 1.725000000000001 18.975
491 2 8.625 1.725000000000001 22.425
492 4 8.625 1.725000000000001 25.875
493 4 8.625 5.175 1.725
494 2 8.625 5.175000000000001 5.175000000000001
495 3 8.625 5.175000000000001 8.625
496 3 8.625 5.175000000000001 15.525
497 4 8.625 5.175000000000001 18.975
498 2 8.625 5.175000000000001 22.425
499 2 8.625 5.175000000000001 25.875
500 4 8.625 8.625 1.725000000000001
501 3 8.625 8.625 5.175000000000001
502 1 8.625 8.625 8.625
503 4 8.625 8.625 12.075
504 4 8.625 8.625 15.525
505 5 8.625 8.625 18.975
506 4 8.625 8.625 22.425
507 5 8.625 8.625 25.875
508 5 8.625 8.625 29.325
509 4 8.625 8.625 32.77500000000001
510 1 8.625 12.075 8.625
511 1 8.625 12.075 25.875
512 1 8.625 12.075 29.325
513 4 8.625 15.525 5.174999999999999
514 1 8.625 15.525 8.625000000000002
515 3 8.625 15.525 22.425
516 3 8.625 18.975 1.725000000000001
517 1 8.625 18.975 5.175000000000001
518 5 8.625 18.975 8.625
519 5 8.625 18.975 18.975
520 3 8.625 18.975 25.875
521 1 8.625 18.975 29.325
522 1 8.625 22.425 1.725
523 5 8.625 22.425 5.175000000000002
524 2 8.625 22.425 8.624999999999998
525 5 8.625 22.425 15.525
526 4 8.625 22.425 22.425
527 3 8.625 25.875 1.725000000000001
528 3 8.625 25.875 5.175000000000001
529 3 8.625 25.875 8.625
530 5 8.625 25.875 12.075
531 4 8.625 25.875 18.975
532 2 8.625 25.875 25.875
533 5 8.625 25.875 29.325
534 2 8.625 25.875 32.77500000000001
535 5 8.625 29.325 8.625
536 1 8.625 29.325 12.075
537 1 8.625 29.325 18.975
538 5 8.625 29.325 25.875
539 5 8.625 29.325 29.325
540 1 8.625 32.77500000000001 8.625
541 2 8.625 32.77500000000001 25.875
542 4 8.625000000000002 1.725 12.075
543 3 8.625000000000002 1.725 15.525
544 3 8.625000000000002 1.725 29.325
545 2 8.625000000000002 1.725 1.725
546 1 8.625000000000002 5.174999999999999 12.075
547 3 8.625000000000002 5.174999999999999 29.325
548 2 8.625000000000002 5.174999999999999 32.77500000000001
549 3 8.625000000000002 12.075 1.725
550 1 8.625000000000002 12.075 5.174999999999999
551 5 8.625000000000002 12.075 12.075
552 2 8.625000000000002 12.075 15.525
553 1 8.625000000000002 12.075 18.975
554 4 8.625000000000002 12.075 22.425
555 4 8.625000000000002 15.525 1.725
556 5 8.625000000000002 15.525 12.075
557 1 8.625000000000002 15.525 15.525
558 5 8.625000000000002 15.525 18.975
559 2 8.625000000000002 15.525 29.325
560 4 8.625000000000002 15.525 32.77500000000001
561 1 8.625000000000002 18.975 12.075
562 5 8.625000000000002 18.975 15.525
563 2 8.625000000000002 22.425 12.075
564 5 8.625000000000002 22.425 29.325
565 2 8.625000000000002 22.425 32.77500000000001
566 5 8.625000000000002 29.325 1.725000000000001
567 5 8.625000000000002 29.325 5.174999999999997
568 4 8.625000000000002 29.325 15.525
569 2 8.625000000000002 29.325 22.425
570 3 8.625000000000002 32.77500000000001 5.174999999999997
571 2 8.625000000000002 32.77500000000001 15.525
572 3 8.625000000000002 32.77500000000001 22.425
573 4 8.625000000000004 1.724999999999998 32.77500000000001
574 1 8.625000000000004 12.075 32.775
575 4 8.625000000000004 18.975 32.77500000000001
576 2 8.625000000000004 29.325 32.775
577 4 8.625000000000004 32.77500000000001 1.724999999999998
578 4 8.625000000000004 32.77500000000001 12.075
579 3 8.625000000000004 32.77500000000001 18.97499999999999
580 3 8.625000000000004 32.77500000000001 29.325
581 5 8.625000000000004 32.77500000000001 32.77500000000001
582 3 10.35 17.25 24.15
583 5 10.35 20.7 20.7
584 5 10.35 24.15 17.25
585 1 10.35 24.15 24.15000000000001
586 4 10.35 1.915134717478395e-15 20.7
587 3 10.35 1.915134717478395e-15 24.15
588 4 10.35 3.450000000000001 6.9
589 5 10.35 3.450000000000001 17.25
590 2 10.35 3.450000000000001 20.7
591 2 10.35 3.450000000000001 24.15
592 4 10.35 6.9 3.450000000000001
593 4 10.35 6.9 6.9
594 4 10.35 6.9 13.8
595 5 10.35 6.9 17.25
596 4 10.35 6.9 20.7
597 1 10.35 6.9 24.15
598 2 10.35 13.8 6.9
599 2 10.35 13.8 24.15
600 2 10.35 13.8 27.6
601 5 10.35 17.25 3.449999999999999
602 1 10.35 17.25 6.900000000000002
603 3 10.35 17.25 20.7
604 4 10.35 20.7 1.915134717478395e-15
605 3 10.35 20.7 3.450000000000001
606 4 10.35 20.7 6.9
607 3 10.35 20.7 17.25
608 2 10.35 20.7 24.15
609 2 10.35 20.7 27.6
610 3 10.35 24.15 0
611 1 10.35 24.15 3.450000000000003
612 4 10.35 24.15 6.899999999999999
613 3 10.35 24.15 13.8
614 3 10.35 24.15 20.7
615 1 10.35 27.6 13.8
616 3 10.35 27.6 20.7
617 5 10.35 0 0
618 2 10.35 0 3.449999999999999
619 4 10.35 0 10.35
620 4 10.35 0 13.8
621 4 10.35 0 17.25
622 3 10.35 0 27.6
623 5 10.35 9.575673587391975e-16 6.899999999999999
624 5 10.35 3.449999999999999 10.35
625 2 10.35 3.449999999999999 13.8
626 3 10.35 3.449999999999999 27.6
627 3 10.35 3.45 0
628 4 10.35 3.45 3.450000000000001
629 5 10.35 6.899999999999999 10.35
630 4 10.35 6.899999999999999 27.6
631 2 10.35 6.899999999999999 31.05
632 3 10.35 6.899999999999999 0
633 3 10.35 10.35 0
634 2 10.35 10.35 3.449999999999999
635 1 10.35 10.35 6.899999999999999
636 3 10.35 10.35 10.35
637 2 10.35 10.35 13.8
638 3 10.35 10.35 17.25
639 2 10.35 10.35 20.7
640 4 10.35 10.35 24.15
641 2 10.35 10.35 27.6
642 4 10.35 10.35 31.05
643 2 10.35 13.8 0
644 3 10.35 13.8 3.449999999999999
645 1 10.35 13.8 10.35
646 3 10.35 13.8 13.8
647 4 10.35 13.8 17.25
648 5 10.35 13.8 20.7
649 2 10.35 17.25 0
650 4 10.35 17.25 10.35
651 3 10.35 17.25 13.8
652 5 10.35 17.25 17.25
653 4 10.35 17.25 27.6
654 2 10.35 17.25 31.05000000000001
655 3 10.35 20.7 10.35
656 3 10.35 20.7 13.8
657 5 10.35 24.15 10.35
658 2 10.35 24.15 27.6
659 1 10.35 24.15 31.05
660 2 10.35 27.6 0
661 5 10.35 27.6 3.449999999999999
662 3 10.35 27.6 6.899999999999999
663 5 10.35 27.6 10.35
664 3 10.35 27.6 17.25
665 2 10.35 27.6 24.15
666 4 10.35 27.6 27.6
667 2 10.35 27.6 31.05
668 4 10.35 31.05 6.899999999999999
669 2 10.35 31.05 10.35
670 5 10.35 31.05 17.25
671 5 10.35 31.05 24.15
672 3 10.35 31.05 27.6
673 3 10.35 3.449999999999998 31.05
674 3 10.35 13.8 31.05
675 3 10.35 20.7 31.05
676 1 10.35 31.05 0
677 2 10.35 31.05 3.449999999999995
678 1 10.35 31.05 13.8
679 1 10.35 31.05 20.7
680 4 10.35 34.5 31.05
681 1 10.35 31.05 31.05
682 2 12.075 18.975 22.425
683 4 12.075 22.425 18.975
684 4 12.075 1.725000000000001 5.174999999999999
685 1 12.075 1.725000000000001 18.975
686 2 12.075 1.725000000000001 22.425
687 3 12.075 5.175 1.725000000000001
688 5 12.075 5.175000000000001 5.175000000000001
689 4 12.075 5.175000000000001 15.525
690 3 12.075 5.175000000000001 18.975
691 2 12.075 5.175000000000001 22.425
692 3 12.075 5.175000000000001 32.77500000000001
693 4 12.075 8.625000000000004 32.775
694 1 12.075 15.525 5.175000000000001
695 4 12.075 15.525 22.425
696 5 12.075 15.525 25.875
697 1 12.075 15.525 32.77500000000001
698 5 12.075 18.975 1.725
699 5 12.075 18.975 5.175000000000002
700 2 12.075 18.975 18.975
701 3 12.075 22.425 1.725000000000001
702 3 12.075 22.425 5.175000000000001
703 5 12.075 22.425 15.525
704 3 12.075 22.425 22.425
705 3 12.075 22.425 25.875
706 2 12.075 22.425 32.77500000000001
707 4 12.075 25.875 15.525
708 3 12.075 25.875 22.425
709 4 12.075 25.875 32.775
710 2 12.075 32.77500000000001 5.175000000000001
711 1 12.075 32.77500000000001 8.625000000000004
712 4 12.075 32.77500000000001 15.525
713 5 12.075 32.77500000000001 22.425
714 4 12.075 32.77500000000001 25.875
715 2 12.075 32.77500000000001 32.77500000000001
716 5 12.075 1.725 1.725
717 3 12.075 1.725 8.625000000000002
718 1 12.075 1.725 12.075
719 5 12.075 1.725 15.525
720 3 12.075 1.725 25.875
721 3 12.075 1.725 32.775
722 4 12.075 5.174999999999999 8.625
723 2 12.075 5.174999999999999 12.075
724 4 12.075 5.174999999999999 25.875
725 3 12.075 8.625000000000002 1.725
726 4 12.075 8.625000000000002 5.174999999999999
727 3 12.075 8.625000000000002 12.075
728 3 12.075 8.625000000000002 15.525
729 3 12.075 8.625000000000002 18.975
730 1 12.075 8.625000000000002 22.425
731 5 12.075 12.075 1.725
732 3 12.075 12.075 5.174999999999999
733 3 12.075 12.075 8.625000000000002
734 3 12.075 12.075 12.075
735 2 12.075 12.075 15.525
736 1 12.075 12.075 18.975
737 2 12.075 12.075 22.425
738 3 12.075 12.075 25.875
739 5 12.075 12.075 29.325
740 5 12.075 12.075 32.775
741 3 12.075 15.525 1.725
742 2 12.075 15.525 8.625000000000004
743 1 12.075 15.525 12.075
744 4 12.075 15.525 15.525
745 3 12.075 15.525 18.975
746 4 12.075 18.975 8.625000000000002
747 2 12.075 18.975 12.075
748 4 12.075 18.975 15.525
749 1 12.075 18.975 25.87500000000001
750 5 12.075 18.975 29.32500000000001
751 1 12.075 18.975 32.775
752 4 12.075 22.425 8.625
753 1 12.075 22.425 12.075
754 5 12.075 25.875 1.725000000000001
755 1 12.075 25.875 5.174999999999997
756 4 12.075 25.875 12.075
757 2 12.075 25.875 18.975
758 3 12.075 29.325 12.075
759 2 12.075 29.325 18.975
760 1 12.075 32.775 1.724999999999998
761 4 12.075 32.775 12.075
762 3 12.075 32.775 18.975
763 2 12.075 1.724999999999998 29.325
764 5 12.075 5.174999999999997 29.325
765 3 12.075 8.625 8.625
766 5 12.075 8.625 25.875
767 5 12.075 8.625 29.325
768 2 12.075 15.525 29.325
769 2 12.075 22.425 29.325
770 1 12.075 25.875 8.625
771 2 12.075 25.875 25.875
772 4 12.075 25.875 29.325
773 1 12.075 29.325 1.724999999999998
774 5 12.075 29.325 5.174999999999997
775 5 12.075 29.325 8.625
776 2 12.075 29.325 15.525
777 1 12.075 29.325 22.425
778 4 12.075 29.325 25.875
779 2 12.075 29.325 29.325
780 2 12.075 29.325 32.775
781 2 12.075 32.775 29.325
782 3 13.8 20.7 20.7
783 5 13.8 1.915134717478395e-15 20.7
784 3 13.8 3.450000000000001 17.25
785 3 13.8 3.450000000000001 20.7
786 5 13.8 10.35 31.05
787 5 13.8 17.25 3.450000000000001
788 4 13.8 17.25 20.7
789 4 13.8 17.25 24.15000000000001
790 3 13.8 17.25 31.05
791 5 13.8 20.7 0
792 1 13.8 20.7 3.450000000000003
793 2 13.8 20.7 17.25
794 5 13.8 24.15000000000001 17.25
795 4 13.8 31.05 10.35
796 4 13.8 31.05 17.25
797 2 13.8 0 0
798 2 13.8 0 3.449999999999999
799 2 13.8 0 10.35
800 4 13.8 0 13.8
801 2 13.8 0 17.25
802 3 13.8 0 24.15000000000001
803 5 13.8 0 31.05
804 4 13.8 3.449999999999999 0
805 2 13.8 3.449999999999999 6.900000000000002
806 2 13.8 3.449999999999999 10.35
807 5 13.8 3.449999999999999 13.8
808 2 13.8 3.449999999999999 24.15
809 5 13.8 3.449999999999999 31.05
810 4 13.8 3.45 3.449999999999999
811 1 13.8 6.900000000000001 0
812 4 13.8 6.900000000000002 3.449999999999999
813 4 13.8 6.900000000000002 13.8
814 3 13.8 6.900000000000002 17.25
815 4 13.8 6.900000000000002 20.7
816 1 13.8 6.900000000000002 31.05
817 3 13.8 10.35 0
818 2 13.8 10.35 3.449999999999999
819 2 13.8 10.35 10.35
820 4 13.8 10.35 13.8
821 5 13.8 10.35 17.25
822 3 13.8 10.35 20.7
823 1 13.8 13.8 0
824 5 13.8 13.8 3.449999999999999
825 4 13.8 13.8 6.900000000000002
826 2 13.8 13.8 10.35
827 3 13.8 13.8 13.8
828 2 13.8 13.8 17.25
829 1 13.8 13.8 20.7
830 4 13.8 13.8 24.15
831 1 13.8 13.8 27.6
832 3 13.8 13.8 31.05
833 5 13.8 17.25 0
834 5 13.8 17.25 6.900000000000004
835 1 13.8 17.25 10.35
836 4 13.8 17.25 13.8
837 1 13.8 17.25 17.25
838 2 13.8 20.7 6.900000000000002
839 1 13.8 20.7 10.35
840 1 13.8 20.7 13.8
841 3 13.8 20.7 24.15000000000001
842 2 13.8 20.7 27.60000000000001
843 2 13.8 20.7 31.05
844 3 13.8 24.15 0
845 4 13.8 24.15 3.449999999999999
846 5 13.8 24.15 13.8
847 2 13.8 24.15 20.7
848 1 13.8 24.15 24.15
849 5 13.8 24.15 31.05
850 2 13.8 27.6 13.8
851 4 13.8 27.6 20.7
852 5 13.8 27.6 31.05
853 4 13.8 31.05 0
854 1 13.8 31.05 3.449999999999999
855 4 13.8 31.05 6.900000000000002
856 5 13.8 31.05 13.8
857 3 13.8 31.05 20.7
858 1 13.8 31.05 24.15
859 2 13.8 31.05 27.6
860 4 13.8 31.05 31.05
861 4 13.8 34.5 6.9
862 3 13.8 3.449999999999998 27.6
863 2 13.8 6.9 6.899999999999999
864 2 13.8 6.9 10.35
865 5 13.8 6.9 24.15
866 2 13.8 10.35 6.9
867 5 13.8 10.35 24.15
868 4 13.8 10.35 27.6
869 5 13.8 17.25 27.6
870 1 13.8 24.15 6.899999999999999
871 5 13.8 24.15 10.35
872 5 13.8 27.6 0
873 3 13.8 27.6 3.449999999999995
874 5 13.8 27.6 10.35
875 4 13.8 27.6 17.25
876 4 13.8 34.5 27.6
877 1 13.8 6.899999999999999 27.6
878 3 13.8 24.15 27.6
879 4 13.8 27.6 6.899999999999999
880 1 13.8 27.6 24.15
881 2 13.8 27.6 27.6
882 3 15.525 1.725000000000001 18.975
883 2 15.525 12.075 29.325
884 5 15.525 18.975 1.725000000000001
885 4 15.525 18.975 18.975
886 5 15.525 18.975 22.425
887 2 15.525 18.975 29.325
888 4 15.525 22.425 18.975
889 4 15.525 29.325 12.075
890 2 15.525 29.325 18.975
891 5 15.525 29.325 29.325
892 3 15.525 1.725 1.725
893 1 15.525 1.725 8.625
894 5 15.525 1.725 12.075
895 4 15.525 1.725 15.525
896 4 15.525 1.725 22.425
897 1 15.525 1.725 29.325
898 1 15.525 5.175000000000002 15.525
899 5 15.525 5.175000000000002 18.975
900 3 15.525 8.625000000000002 1.725
901 5 15.525 8.625000000000002 12.075
902 4 15.525 8.625000000000002 15.525
903 1 15.525 8.625000000000002 18.975
904 2 15.525 8.625000000000002 29.325
905 1 15.525 8.625000000000002 32.77500000000001
906 3 15.525 12.075 1.725
907 2 15.525 12.075 8.625000000000004
908 3 15.525 12.075 12.075
909 3 15.525 12.075 15.525
910 4 15.525 12.075 18.975
911 1 15.525 15.525 1.725
912 2 15.525 15.525 5.175000000000002
913 3 15.525 15.525 8.625000000000002
914 5 15.525 15.525 12.075
915 3 15.525 15.525 15.525
916 4 15.525 15.525 18.975
917 4 15.525 15.525 22.425
918 4 15.525 15.525 25.87500000000001
919 4 15.525 15.525 29.325
920 1 15.525 15.525 32.77500000000001
921 2 15.525 18.975 5.175000000000004
922 2 15.525 18.975 8.625
923 5 15.525 18.975 12.075
924 5 15.525 18.975 15.525
925 3 15.525 22.425 1.725000000000001
926 3 15.525 22.425 15.525
927 4 15.525 25.87500000000001 15.525
928 5 15.525 29.325 1.724999999999998
929 2 15.525 29.325 8.625000000000004
930 4 15.525 29.325 15.525
931 4 15.525 32.77500000000001 8.625000000000004
932 1 15.525 32.77500000000001 15.525
933 1 15.525 1.724999999999998 25.875
934 4 15.525 1.724999999999998 32.77500000000001
935 5 15.525 1.724999999999999 5.175000000000001
936 3 15.525 5.175000000000001 5.175000000000001
937 3 15.525 5.175000000000001 8.625
938 1 15.525 5.175000000000001 12.075
939 2 15.525 5.175000000000001 22.425
940 2 15.525 5.175000000000001 29.325
941 5 15.525 5.175000000000001 32.775
942 4 15.525 5.175000000000002 1.724999999999998
943 2 15.525 8.625 5.174999999999999
944 1 15.525 8.625 8.625000000000002
945 4 15.525 8.625 22.425
946 4 15.525 12.075 5.175000000000001
947 5 15.525 12.075 22.425
948 4 15.525 12.075 25.875
949 3 15.525 12.075 32.77500000000001
950 3 15.525 18.975 25.875
951 1 15.525 18.975 32.77500000000001
952 3 15.525 22.425 5.175000000000001
953 1 15.525 22.425 8.625
954 1 15.525 22.425 12.075
955 1 15.525 22.425 22.425
956 2 15.525 22.425 25.87500000000001
957 5 15.525 22.425 29.325
958 2 15.525 22.425 32.775
959 5 15.525 25.875 1.724999999999998
960 4 15.525 25.875 12.075
961 1 15.525 25.875 18.97499999999999
962 5 15.525 25.875 22.425
963 4 15.525 25.875 29.325
964 5 15.525 25.875 32.77500000000001
965 4 15.525 29.325 5.175000000000001
966 1 15.525 29.325 22.425
967 5 15.525 29.325 25.875
968 2 15.525 29.325 32.77500000000001
969 4 15.525 32.77500000000001 1.724999999999998
970 1 15.525 32.77500000000001 5.175000000000001
971 3 15.525 32.77500000000001 12.075
972 4 15.525 32.77500000000001 18.975
973 4 15.525 32.77500000000001 22.425
974 1 15.525 32.77500000000001 25.875
975 3 15.525 32.77500000000001 29.325
976 4 15.525 32.77500000000001 32.77500000000001
977 2 15.525 5.174999999999999 25.875
978 2 15.525 8.624999999999998 25.875
979 4 15.525 25.875 5.174999999999997
980 5 15.525 25.875 8.625
981 1 15.52500000000001 25.875 25.875
982 3 17.25 13.8 27.6
983 1 17.25 27.6 13.8
984 5 17.25 0 0
985 2 17.25 0 6.900000000000002
986 3 17.25 0 10.35
987 2 17.25 0 13.8
988 5 17.25 0 17.25
989 2 17.25 0 20.7
990 4 17.25 0 27.6
991 2 17.25 3.450000000000001 6.899999999999999
992 2 17.25 3.450000000000001 10.35
993 1 17.25 3.450000000000001 13.8
994 2 17.25 3.450000000000001 20.7
995 2 17.25 3.450000000000001 27.6
996 2 17.25 3.450000000000001 34.5
997 3 17.25 3.450000000000003 17.25
998 1 17.25 6.9 3.450000000000001
999 1 17.25 6.9 6.9
1000 2 17.25 6.9 10.35
1001 2 17.25 6.9 20.7
1002 2 17.25 6.9 27.59999999999999
1003 4 17.25 6.9 31.05
1004 3 17.25 6.900000000000001 34.5
1005 1 17.25 6.900000000000002 13.8
1006 4 17.25 6.900000000000002 17.25
1007 3 17.25 10.35 3.449999999999999
1008 3 17.25 10.35 6.900000000000002
1009 2 17.25 10.35 20.7
1010 2 17.25 10.35 0
1011 3 17.25 10.35 10.35
1012 3 17.25 10.35 13.8
1013 2 17.25 10.35 17.25
1014 4 17.25 10.35 27.6
1015 4 17.25 10.35 31.05000000000001
1016 1 17.25 13.8 3.450000000000001
1017 3 17.25 13.8 20.7
1018 2 17.25 13.8 24.15000000000001
1019 4 17.25 13.8 31.05
1020 3 17.25 13.8 0
1021 2 17.25 13.8 6.900000000000004
1022 1 17.25 13.8 10.35
1023 1 17.25 13.8 13.8
1024 4 17.25 13.8 17.25
1025 1 17.25 17.25 0
1026 4 17.25 17.25 3.450000000000003
1027 2 17.25 17.25 6.900000000000002
1028 5 17.25 17.25 10.35
1029 3 17.25 17.25 13.8
1030 4 17.25 17.25 17.25
1031 3 17.25 17.25 20.7
1032 2 17.25 17.25 24.15000000000001
1033 5 17.25 17.25 27.6
1034 5 17.25 17.25 31.05
1035 2 17.25 20.7 0
1036 3 17.25 20.7 3.450000000000003
1037 1 17.25 20.7 6.899999999999999
1038 2 17.25 20.7 10.35
1039 4 17.25 20.7 13.8
1040 3 17.25 20.7 17.25
1041 3 17.25 20.7 20.7
1042 2 17.25 20.7 27.6
1043 2 17.25 24.15000000000001 0
1044 4 17.25 24.15000000000001 13.8
1045 1 17.25 24.15000000000001 17.25
1046 4 17.25 27.6 0
1047 3 17.25 27.6 3.449999999999999
1048 2 17.25 27.6 6.900000000000002
1049 4 17.25 27.6 10.35
1050 4 17.25 27.6 17.25
1051 1 17.25 27.6 20.7
1052 3 17.25 27.6 27.6
1053 3 17.25 27.6 31.05000000000001
1054 1 17.25 31.05 6.900000000000002
1055 3 17.25 31.05 10.35
1056 3 17.25 31.05 13.8
1057 5 17.25 31.05 17.25
1058 5 17.25 31.05 27.6
1059 4 17.25 31.05 34.49999999999999
1060 3 17.25 34.5 3.450000000000001
1061 4 17.25 34.5 24.15000000000001
1062 4 17.25 34.5 31.05
1063 3 17.25 3.449999999999999 24.15
1064 2 17.25 3.449999999999999 31.05
1065 4 17.25 3.45 3.449999999999999
1066 3 17.25 6.899999999999999 24.15
1067 3 17.25 10.35 24.15
1068 4 17.25 20.7 24.15
1069 5 17.25 20.7 31.05
1070 2 17.25 24.15 3.449999999999999
1071 3 17.25 24.15 6.899999999999999
1072 2 17.25 24.15 10.35
1073 5 17.25 24.15 20.7
1074 3 17.25 24.15 24.15000000000001
1075 1 17.25 24.15 27.59999999999999
1076 5 17.25 24.15 31.05
1077 5 17.25 27.6 24.15
1078 3 17.25 31.05 3.449999999999999
1079 5 17.25 31.05 20.7
1080 2 17.25 31.05 24.15
1081 5 17.25 31.05 31.05
1082 3 18.975 8.625000000000004 32.77500000000001
1083 2 18.975 15.525 25.875
1084 1 18.975 15.525 32.77500000000001
1085 5 18.975 25.875 15.525
1086 5 18.975 25.875 32.77500000000001
1087 5 18.975 32.77500000000001 8.625
1088 3 18.975 32.77500000000001 15.52500000000001
1089 5 18.975 32.77500000000001 25.875
1090 5 18.975 32.77500000000001 32.77500000000001
1091 1 18.975 1.725 1.725
1092 4 18.975 1.725 22.425
1093 4 18.975 1.725 29.325
1094 5 18.975 1.725000000000001 5.175000000000001
1095 4 18.975 1.725000000000001 8.625
1096 2 18.975 1.725000000000001 12.075
1097 3 18.975 1.725000000000001 15.525
1098 4 18.975 1.725000000000001 18.975
1099 4 18.975 1.725000000000001 25.875
1100 2 18.975 1.725000000000001 32.775
1101 4 18.975 5.174999999999999 22.425
1102 4 18.975 5.174999999999999 29.325
1103 3 18.975 5.175 1.725
1104 5 18.975 5.175000000000001 5.174999999999999
1105 5 18.975 5.175000000000001 8.625000000000002
1106 2 18.975 5.175000000000001 12.075
1107 1 18.975 5.175000000000001 18.975
1108 5 18.975 5.175000000000001 25.875
1109 1 18.975 5.175000000000002 15.525
1110 4 18.975 5.175000000000002 32.775
1111 5 18.975 8.624999999999998 22.425
1112 1 18.975 8.625 1.725000000000001
1113 3 18.975 8.625 5.175000000000001
1114 2 18.975 8.625 8.625
1115 5 18.975 8.625 18.975
1116 4 18.975 8.625 25.875
1117 2 18.975 8.625 29.325
1118 4 18.975 8.625000000000002 12.075
1119 4 18.975 8.625000000000002 15.525
1120 1 18.975 12.075 22.425
1121 1 18.975 12.075 1.725
1122 4 18.975 12.075 5.175000000000002
1123 2 18.975 12.075 18.975
1124 3 18.975 12.075 8.625000000000002
1125 4 18.975 12.075 12.075
1126 1 18.975 12.075 15.525
1127 3 18.975 12.075 25.87500000000001
1128 1 18.975 12.075 29.32500000000001
1129 2 18.975 12.075 32.775
1130 2 18.975 15.525 1.725000000000001
1131 1 18.975 15.525 18.975
1132 4 18.975 15.525 22.425
1133 3 18.975 15.525 29.325
1134 3 18.975 15.525 5.175000000000004
1135 5 18.975 15.525 8.625
1136 4 18.975 15.525 12.075
1137 1 18.975 15.525 15.525
1138 3 18.975 18.975 1.725000000000001
1139 2 18.975 18.975 5.175000000000001
1140 1 18.975 18.975 8.625
1141 5 18.975 18.975 12.075
1142 2 18.975 18.975 15.525
1143 3 18.975 18.975 18.975
1144 5 18.975 18.975 22.425
1145 1 18.975 18.975 25.875
1146 5 18.975 18.975 29.325
1147 5 18.975 18.975 32.775
1148 4 18.975 22.425 1.725000000000001
1149 5 18.975 22.425 5.174999999999997
1150 2 18.975 22.425 8.625
1151 3 18.975 22.425 12.075
1152 1 18.975 22.425 15.525
1153 5 18.975 22.425 18.975
1154 4 18.975 22.425 25.875
1155 1 18.975 22.425 32.775
1156 2 18.975 25.875 1.725000000000001
1157 2 18.975 25.875 5.175000000000001
1158 5 18.975 25.875 8.625
1159 2 18.975 25.875 12.075
1160 1 18.975 25.875 18.975
1161 5 18.975 25.875 22.42500000000001
1162 1 18.975 25.875 25.875
1163 2 18.975 25.875 29.325
1164 1 18.975 29.325 1.724999999999998
1165 2 18.975 29.325 5.175000000000001
1166 2 18.975 29.325 8.625
1167 2 18.975 29.325 12.075
1168 2 18.975 29.325 15.525
1169 4 18.975 29.325 18.975
1170 1 18.975 29.325 25.875
1171 3 18.975 29.325 29.32500000000001
1172 3 18.975 29.325 32.77499999999999
1173 5 18.975 32.775 1.725000000000001
1174 1 18.975 32.775 5.175000000000004
1175 4 18.975 32.775 12.075
1176 3 18.975 32.775 18.975
1177 2 18.975 32.775 22.425
1178 4 18.975 32.775 29.325
1179 5 18.975 22.425 22.425
1180 3 18.975 22.425 29.325
1181 1 18.975 29.325 22.425
1182 1 20.7 10.35 31.05
1183 1 20.7 31.05 10.35
1184 3 20.7 6.900000000000002 13.8
1185 4 20.7 6.900000000000002 31.05
1186 3 20.7 10.35 10.35
1187 2 20.7 10.35 13.8
1188 4 20.7 13.8 6.900000000000002
1189 5 20.7 13.8 10.35
1190 5 20.7 13.8 13.8
1191 1 20.7 13.8 24.15000000000001
1192 3 20.7 13.8 27.60000000000001
1193 2 20.7 13.8 31.05
1194 5 20.7 17.25 24.15
1195 4 20.7 17.25 31.05
1196 3 20.7 24.15 13.8
1197 2 20.7 24.15 17.25
1198 1 20.7 24.15 24.15
1199 1 20.7 24.15 31.05
1200 3 20.7 27.6 13.8
1201 2 20.7 27.6 31.05
1202 2 20.7 31.05 6.900000000000002
1203 3 20.7 31.05 13.8
1204 4 20.7 31.05 17.25
1205 4 20.7 31.05 24.15000000000001
1206 5 20.7 31.05 27.60000000000001
1207 5 20.7 31.05 31.05
1208 2 20.7 0 0
1209 1 20.7 0 3.449999999999999
1210 2 20.7 0 6.899999999999999
1211 2 20.7 0 17.25
1212 3 20.7 0 20.7
1213 5 20.7 0 27.6
1214 2 20.7 1.915134717478395e-15 10.35
1215 1 20.7 1.915134717478395e-15 13.8
1216 3 20.7 1.915134717478395e-15 24.15
1217 4 20.7 1.915134717478395e-15 31.05
1218 2 20.7 3.449999999999999 0
1219 4 20.7 3.449999999999999 20.7
1220 5 20.7 3.449999999999999 27.6
1221 3 20.7 3.450000000000001 3.450000000000001
1222 2 20.7 3.450000000000001 6.9
1223 4 20.7 3.450000000000001 10.35
1224 3 20.7 3.450000000000001 13.8
1225 1 20.7 3.450000000000001 17.25
1226 3 20.7 3.450000000000001 24.15
1227 5 20.7 3.450000000000001 31.05
1228 5 20.7 6.899999999999999 20.7
1229 2 20.7 6.899999999999999 27.6
1230 3 20.7 6.899999999999999 0
1231 4 20.7 6.9 3.449999999999999
1232 3 20.7 6.9 6.900000000000002
1233 2 20.7 6.9 10.35
1234 5 20.7 6.9 17.25
1235 5 20.7 6.9 24.15
1236 1 20.7 10.35 20.7
1237 1 20.7 10.35 1.915134717478395e-15
1238 2 20.7 10.35 3.450000000000001
1239 2 20.7 10.35 6.9
1240 4 20.7 10.35 17.25
1241 1 20.7 10.35 24.15
1242 1 20.7 10.35 27.6
1243 4 20.7 13.8 20.7
1244 3 20.7 13.8 0
1245 1 20.7 13.8 3.450000000000003
1246 3 20.7 13.8 17.25
1247 1 20.7 17.25 0
1248 5 20.7 17.25 3.450000000000003
1249 3 20.7 17.25 6.899999999999999
1250 3 20.7 17.25 10.35
1251 5 20.7 17.25 13.8
1252 5 20.7 17.25 17.25
1253 5 20.7 17.25 20.7
1254 1 20.7 17.25 27.6
1255 5 20.7 20.7 0
1256 4 20.7 20.7 3.449999999999999
1257 3 20.7 20.7 6.899999999999999
1258 3 20.7 20.7 10.35
1259 2 20.7 20.7 13.8
1260 1 20.7 20.7 17.25
1261 5 20.7 20.7 20.7
1262 1 20.7 20.7 24.15
1263 3 20.7 20.7 27.6
1264 1 20.7 20.7 31.05
1265 1 20.7 24.15 3.83026943495679e-15
1266 5 20.7 24.15 3.449999999999999
1267 2 20.7 24.15 6.900000000000002
1268 5 20.7 24.15 10.35
1269 3 20.7 24.15 20.7
1270 3 20.7 24.15 27.6
1271 1 20.7 27.6 0
1272 1 20.7 27.6 3.449999999999999
1273 4 20.7 27.6 6.899999999999999
1274 5 20.7 27.6 10.35
1275 4 20.7 27.6 17.25
1276 4 20.7 27.6 20.70000000000001
1277 4 20.7 27.6 24.15
1278 2 20.7 27.6 27.6
1279 5 20.7 31.05 0
1280 4 20.7 31.05 3.450000000000003
1281 1 20.7 31.05 20.7
1282 4 22.425 8.625000000000002 12.075
1283 4 22.425 8.625000000000002 29.325
1284 5 22.425 8.625000000000002 32.77500000000001
1285 1 22.425 12.075 8.625
1286 2 22.425 12.075 12.075
1287 4 22.425 12.075 29.325
1288 3 22.425 29.325 8.625
1289 5 22.425 29.325 12.075
1290 5 22.425 29.325 29.325
1291 2 22.425 32.77500000000001 8.625
1292 5 22.425 1.725000000000001 8.625000000000002
1293 4 22.425 1.725000000000001 12.075
1294 5 22.425 1.725000000000001 22.425
1295 1 22.425 1.725000000000001 29.325
1296 5 22.425 5.175000000000001 1.725000000000001
1297 1 22.425 5.175000000000001 5.175000000000001
1298 2 22.425 5.175000000000001 8.625
1299 4 22.425 5.175000000000001 12.075
1300 3 22.425 5.175000000000001 15.525
1301 3 22.425 5.175000000000001 22.425
1302 5 22.425 5.175000000000001 29.325
1303 4 22.425 5.175000000000001 32.77500000000001
1304 5 22.425 8.625 1.725
1305 2 22.425 8.625 5.175000000000002
1306 5 22.425 8.625 8.624999999999998
1307 2 22.425 8.625 15.525
1308 4 22.425 8.625 22.425
1309 5 22.425 12.075 1.725000000000001
1310 5 22.425 12.075 5.175000000000001
1311 5 22.425 12.075 15.525
1312 4 22.425 12.075 22.425
1313 5 22.425 12.075 25.875
1314 3 22.425 12.075 32.77500000000001
1315 2 22.425 15.525 5.175000000000001
1316 1 22.425 15.525 8.625
1317 2 22.425 15.525 12.075
1318 2 22.425 15.525 22.425
1319 2 22.425 15.525 25.87500000000001
1320 3 22.425 15.525 29.325
1321 2 22.425 15.525 32.775
1322 1 22.425 18.975 22.425
1323 1 22.425 18.975 29.325
1324 5 22.425 22.425 1.725000000000001
1325 2 22.425 22.425 5.175000000000001
1326 1 22.425 22.425 8.625
1327 4 22.425 22.425 12.075
1328 4 22.425 22.425 15.525
1329 1 22.425 22.425 18.975
1330 4 22.425 22.425 22.425
1331 4 22.425 22.425 25.875
1332 5 22.425 22.425 29.325
1333 3 22.425 22.425 32.77500000000001
1334 1 22.425 25.875 12.075
1335 4 22.425 25.875 15.525
1336 1 22.425 25.875 22.425
1337 3 22.425 25.875 29.325
1338 5 22.425 25.875 32.77500000000001
1339 1 22.425 29.325 1.725000000000001
1340 2 22.425 29.325 5.175000000000001
1341 5 22.425 29.325 15.52500000000001
1342 1 22.425 29.325 18.97500000000001
1343 1 22.425 29.325 22.425
1344 4 22.425 29.325 25.875
1345 1 22.425 29.325 32.77500000000001
1346 2 22.425 32.77500000000001 5.175000000000001
1347 5 22.425 32.77500000000001 12.075
1348 3 22.425 32.77500000000001 15.525
1349 5 22.425 32.77500000000001 22.425
1350 1 22.425 32.77500000000001 25.87500000000001
1351 4 22.425 32.77500000000001 29.325
1352 2 22.425 32.77500000000001 32.775
1353 3 22.425 1.725 1.725
1354 4 22.425 1.725 5.174999999999999
1355 3 22.425 1.725 15.525
1356 5 22.425 1.725 18.975
1357 2 22.425 1.725 25.875
1358 4 22.425 1.725 32.775
1359 4 22.425 5.174999999999999 18.975
1360 3 22.425 5.174999999999999 25.875
1361 1 22.425 8.624999999999998 18.975
1362 3 22.425 8.624999999999998 25.87500000000001
1363 5 22.425 12.075 18.975
1364 3 22.425 15.525 18.975
1365 1 22.425 15.525 1.725000000000001
1366 5 22.425 15.525 15.525
1367 1 22.425 18.975 1.725000000000001
1368 2 22.425 18.975 5.174999999999997
1369 3 22.425 18.975 8.625
1370 1 22.425 18.975 12.075
1371 3 22.425 18.975 15.525
1372 1 22.425 18.975 18.975
1373 5 22.425 18.975 25.875
1374 3 22.425 18.975 32.775
1375 3 22.425 25.875 1.724999999999998
1376 5 22.425 25.875 5.175000000000001
1377 2 22.425 25.875 8.624999999999996
1378 5 22.425 25.875 18.975
1379 2 22.425 25.875 25.875
1380 2 22.425 32.775 1.725000000000001
1381 4 22.425 32.775 18.975
1382 3 24.15 1.915134717478395e-15 6.9
1383 1 24.15 1.915134717478395e-15 10.35
1384 2 24.15 1.915134717478395e-15 20.7
1385 3 24.15 1.915134717478395e-15 27.59999999999999
1386 2 24.15 3.450000000000001 6.900000000000002
1387 1 24.15 3.450000000000001 10.35
1388 3 24.15 3.450000000000001 20.7
1389 4 24.15 3.450000000000001 27.6
1390 5 24.15 6.9 1.915134717478395e-15
1391 4 24.15 6.9 3.450000000000001
1392 4 24.15 6.9 6.9
1393 5 24.15 6.9 10.35
1394 2 24.15 6.9 13.8
1395 4 24.15 6.9 20.7
1396 3 24.15 6.9 27.6
1397 3 24.15 6.9 31.05
1398 4 24.15 10.35 0
1399 3 24.15 10.35 3.450000000000003
1400 2 24.15 10.35 6.899999999999999
1401 4 24.15 10.35 13.8
1402 1 24.15 10.35 20.7
1403 2 24.15 10.35 10.35
1404 3 24.15 10.35 27.6
1405 2 24.15 10.35 31.05
1406 3 24.15 13.8 6.899999999999999
1407 5 24.15 13.8 10.35
1408 5 24.15 13.8 27.6
1409 4 24.15 20.7 3.83026943495679e-15
1410 3 24.15 20.7 3.449999999999999
1411 4 24.15 20.7 6.900000000000002
1412 1 24.15 20.7 10.35
1413 5 24.15 20.7 20.7
1414 1 24.15 20.7 27.6
1415 5 24.15 27.6 0
1416 4 24.15 27.6 3.450000000000003
1417 2 24.15 27.6 6.899999999999999
1418 4 24.15 27.6 10.35
1419 5 24.15 27.6 13.8
1420 1 24.15 27.6 20.7
1421 1 24.15 27.6 27.6
1422 2 24.15 27.6 31.05
1423 4 24.15 31.05 6.899999999999999
1424 1 24.15 31.05 10.35
1425 1 24.15 31.05 27.6
1426 4 24.15 0 0
1427 1 24.15 0 3.449999999999999
1428 5 24.15 0 13.8
1429 2 24.15 0 24.15
1430 5 24.15 0 31.05
1431 4 24.15 3.449999999999999 0
1432 5 24.15 3.449999999999999 3.449999999999999
1433 3 24.15 3.449999999999999 13.8
1434 2 24.15 3.449999999999999 17.25
1435 3 24.15 3.449999999999999 24.15
1436 5 24.15 3.449999999999999 31.05
1437 2 24.15 6.899999999999999 17.25000000000001
1438 1 24.15 6.899999999999999 24.15000000000001
1439 4 24.15 10.35 17.25
1440 2 24.15 10.35 24.15000000000001
1441 2 24.15 13.8 0
1442 3 24.15 13.8 3.449999999999999
1443 2 24.15 13.8 13.8
1444 2 24.15 13.8 20.7
1445 1 24.15 13.8 24.15
1446 1 24.15 13.8 31.05
1447 5 24.15 17.25 3.449999999999999
1448 5 24.15 17.25 6.899999999999999
1449 2 24.15 17.25 10.35
1450 5 24.15 17.25 20.7
1451 2 24.15 17.25 24.15000000000001
1452 5 24.15 17.25 27.59999999999999
1453 1 24.15 17.25 31.05
1454 5 24.15 20.7 13.8
1455 4 24.15 20.7 17.25
1456 2 24.15 20.7 24.15
1457 3 24.15 20.7 31.05
1458 4 24.15 24.15 0
1459 4 24.15 24.15 3.449999999999999
1460 1 24.15 24.15 6.899999999999999
1461 2 24.15 24.15 10.35
1462 1 24.15 24.15 13.8
1463 1 24.15 24.15 17.25
1464 5 24.15 24.15 20.7
1465 2 24.15 24.15 24.15
1466 4 24.15 24.15 27.6
1467 1 24.15 24.15 31.05
1468 4 24.15 27.6 17.25
1469 5 24.15 27.6 24.15000000000001
1470 5 24.15 31.05 0
1471 1 24.15 31.05 3.449999999999999
1472 3 24.15 31.05 13.8
1473 3 24.15 31.05 17.25000000000001
1474 2 24.15 31.05 20.7
1475 1 24.15 31.05 24.15
1476 2 24.15 31.05 31.05
1477 5 24.15000000000001 13.8 17.25
1478 5 24.15000000000001 17.25 0
1479 2 24.15000000000001 17.25 13.8
1480 5 24.15000000000001 17.25 17.25
1481 3 24.15000000000001 34.5 17.25
1482 3 25.875 1.725 1.725
1483 3 25.875 1.725 12.075
1484 1 25.875 1.725 22.425
1485 2 25.875 1.725 29.325
1486 1 25.875 1.725000000000001 5.175000000000001
1487 1 25.875 1.725000000000001 8.625
1488 1 25.875 1.725000000000001 18.975
1489 3 25.875 1.725000000000001 25.875
1490 5 25.875 5.174999999999999 1.725
1491 3 25.875 5.174999999999999 12.075
1492 1 25.875 5.174999999999999 15.525
1493 4 25.875 5.174999999999999 22.425
1494 4 25.875 5.174999999999999 29.325
1495 5 25.875 5.174999999999999 32.77500000000001
1496 3 25.875 5.175000000000001 5.175000000000002
1497 4 25.875 5.175000000000001 8.624999999999998
1498 3 25.875 5.175000000000001 18.975
1499 2 25.875 5.175000000000001 25.875
1500 5 25.875 8.624999999999998 15.52500000000001
1501 3 25.875 8.624999999999998 22.425
1502 2 25.875 8.625 1.725000000000001
1503 3 25.875 8.625 5.175000000000001
1504 2 25.875 8.625 8.625
1505 5 25.875 8.625 12.075
1506 5 25.875 8.625 18.975
1507 4 25.875 8.625 25.875
1508 5 25.875 8.625 29.325
1509 1 25.875 8.625 32.77500000000001
1510 5 25.875 12.075 1.725000000000001
1511 3 25.875 12.075 5.174999999999997
1512 2 25.875 12.075 12.075
1513 1 25.875 12.075 18.975
1514 2 25.875 12.075 8.625
1515 3 25.875 12.075 25.875
1516 3 25.875 12.075 29.325
1517 5 25.875 15.525 5.174999999999997
1518 3 25.875 15.525 8.625
1519 1 25.875 15.52500000000001 25.875
1520 5 25.875 18.975 1.725000000000001
1521 5 25.875 18.975 5.175000000000001
1522 3 25.875 18.975 8.625
1523 5 25.875 18.975 12.075
1524 1 25.875 18.975 18.975
1525 5 25.875 18.975 22.42500000000001
1526 5 25.875 18.975 25.875
1527 4 25.875 18.975 29.325
1528 3 25.875 22.425 1.724999999999998
1529 1 25.875 22.425 5.175000000000001
1530 5 25.875 22.425 8.624999999999996
1531 1 25.875 22.425 18.975
1532 3 25.875 22.425 25.875
1533 4 25.875 25.875 1.725000000000001
1534 5 25.875 25.875 5.175000000000001
1535 1 25.875 25.875 8.625
1536 3 25.875 25.875 12.075
1537 1 25.875 25.875 15.52500000000001
1538 1 25.875 25.875 18.975
1539 1 25.875 25.875 22.425
1540 1 25.875 25.875 25.875
1541 5 25.875 25.875 29.325
1542 3 25.875 25.875 32.77500000000001
1543 1 25.875 29.325 1.725000000000001
1544 5 25.875 29.325 5.174999999999997
1545 2 25.875 29.325 8.625
1546 2 25.875 29.325 12.075
1547 2 25.875 29.325 18.975
1548 4 25.875 29.325 25.875
1549 2 25.875 29.325 29.325
1550 4 25.875 32.77500000000001 5.174999999999997
1551 1 25.875 32.77500000000001 8.625
1552 4 25.875 32.77500000000001 25.875
1553 1 25.875 1.724999999999998 15.525
1554 5 25.875 1.724999999999998 32.77500000000001
1555 5 25.875 12.075 15.525
1556 3 25.875 12.075 22.425
1557 4 25.875 12.075 32.775
1558 1 25.875 15.525 1.724999999999998
1559 5 25.875 15.525 12.075
1560 4 25.875 15.525 18.97499999999999
1561 1 25.875 15.525 22.425
1562 1 25.875 15.525 29.325
1563 4 25.875 15.525 32.77500000000001
1564 3 25.875 18.975 15.525
1565 5 25.875 18.975 32.77500000000001
1566 2 25.875 22.425 12.075
1567 1 25.875 22.425 15.525
1568 2 25.875 22.425 22.425
1569 3 25.875 22.425 29.325
1570 5 25.875 22.425 32.77500000000001
1571 1 25.875 29.325 15.525
1572 5 25.875 29.325 22.425
1573 5 25.875 29.325 32.775
1574 4 25.875 32.77500000000001 1.724999999999998
1575 2 25.875 32.77500000000001 12.075
1576 3 25.875 32.77500000000001 15.52500000000001
1577 1 25.875 32.77500000000001 18.97499999999999
1578 1 25.875 32.77500000000001 22.425
1579 1 25.875 32.77500000000001 29.325
1580 2 25.875 32.77500000000001 32.77500000000001
1581 4 25.87500000000001 15.525 15.525
1582 1 27.6 17.25 24.15
1583 1 27.6 24.15 17.25
1584 5 27.6 24.15 24.15000000000001
1585 2 27.6 0 0
1586 3 27.6 0 3.449999999999999
1587 1 27.6 0 6.899999999999999
1588 5 27.6 0 10.35
1589 3 27.6 0 17.25
1590 1 27.6 0 20.7
1591 5 27.6 0 27.6
1592 1 27.6 1.915134717478395e-15 24.15
1593 5 27.6 3.449999999999998 13.8
1594 1 27.6 3.449999999999998 31.05
1595 4 27.6 3.449999999999999 0
1596 2 27.6 3.449999999999999 10.35
1597 1 27.6 3.449999999999999 20.7
1598 3 27.6 3.449999999999999 27.6
1599 4 27.6 3.450000000000001 3.450000000000001
1600 4 27.6 3.450000000000001 6.9
1601 3 27.6 3.450000000000001 17.25
1602 5 27.6 3.450000000000001 24.15
1603 1 27.6 6.899999999999999 0
1604 4 27.6 6.899999999999999 10.35
1605 2 27.6 6.899999999999999 13.8
1606 1 27.6 6.899999999999999 20.7
1607 4 27.6 6.899999999999999 27.6
1608 3 27.6 6.899999999999999 31.05
1609 5 27.6 6.9 3.450000000000003
1610 3 27.6 6.9 6.899999999999999
1611 1 27.6 6.9 17.25
1612 2 27.6 6.9 24.15
1613 1 27.6 10.35 13.8
1614 4 27.6 10.35 20.7
1615 4 27.6 10.35 0
1616 4 27.6 10.35 3.449999999999999
1617 2 27.6 10.35 6.899999999999999
1618 4 27.6 10.35 10.35
1619 1 27.6 10.35 17.25
1620 3 27.6 10.35 24.15
1621 3 27.6 10.35 27.6
1622 4 27.6 10.35 31.05
1623 1 27.6 13.8 0
1624 5 27.6 13.8 3.449999999999995
1625 4 27.6 13.8 10.35
1626 5 27.6 13.8 17.25
1627 2 27.6 13.8 6.899999999999999
1628 3 27.6 13.8 24.15
1629 5 27.6 13.8 27.6
1630 4 27.6 17.25 13.8
1631 2 27.6 17.25 0
1632 5 27.6 17.25 3.449999999999999
1633 3 27.6 17.25 6.900000000000002
1634 3 27.6 17.25 10.35
1635 4 27.6 17.25 17.25
1636 4 27.6 17.25 20.7
1637 2 27.6 17.25 27.6
1638 3 27.6 17.25 31.05000000000001
1639 5 27.6 20.7 0
1640 4 27.6 20.7 3.449999999999999
1641 2 27.6 20.7 6.899999999999999
1642 5 27.6 20.7 10.35
1643 3 27.6 20.7 17.25
1644 5 27.6 20.7 20.70000000000001
1645 5 27.6 20.7 24.15
1646 1 27.6 20.7 27.6
1647 4 27.6 24.15 0
1648 5 27.6 24.15 3.450000000000003
1649 3 27.6 24.15 6.899999999999999
1650 3 27.6 24.15 10.35
1651 4 27.6 24.15 13.8
1652 2 27.6 24.15 20.7
1653 4 27.6 24.15 27.6
1654 2 27.6 24.15 31.05
1655 3 27.6 27.6 0
1656 4 27.6 27.6 3.449999999999999
1657 5 27.6 27.6 6.899999999999999
1658 5 27.6 27.6 10.35
1659 3 27.6 27.6 13.8
1660 2 27.6 27.6 17.25
1661 4 27.6 27.6 20.7
1662 2 27.6 27.6 24.15
1663 2 27.6 27.6 27.6
1664 1 27.6 27.6 31.05
1665 2 27.6 31.05 0
1666 1 27.6 31.05 3.449999999999995
1667 3 27.6 31.05 6.899999999999999
1668 4 27.6 31.05 10.35
1669 4 27.6 31.05 17.25
1670 5 27.6 31.05 24.15
1671 1 27.6 31.05 27.6
1672 3 27.6 34.5 13.8
1673 5 27.6 34.5 31.05
1674 5 27.6 13.8 13.8
1675 4 27.6 13.8 20.7
1676 1 27.6 13.8 31.05
1677 4 27.6 20.7 13.8
1678 1 27.6 20.7 31.05
1679 2 27.6 31.05 13.8
1680 3 27.6 31.05 20.7
1681 3 27.6 31.05 31.05
1682 5 29.325 1.725000000000001 22.425
1683 3 29.325 5.175000000000001 1.725000000000001
1684 3 29.325 5.175000000000001 5.175000000000001
1685 5 29.325 5.175000000000001 15.525
1686 5 29.325 5.175000000000001 22.425
1687 1 29.325 5.175000000000001 32.77500000000001
1688 1 29.325 8.625000000000004 32.775
1689 3 29.325 15.525 5.175000000000001
1690 5 29.325 15.525 22.425
1691 4 29.325 15.525 25.875
1692 5 29.325 15.525 32.77500000000001
1693 3 29.325 18.975 22.425
1694 3 29.325 22.425 1.725000000000001
1695 5 29.325 22.425 5.175000000000001
1696 4 29.325 22.425 15.52500000000001
1697 1 29.325 22.425 18.97500000000001
1698 4 29.325 22.425 22.425
1699 2 29.325 22.425 25.875
1700 5 29.325 22.425 32.77500000000001
1701 4 29.325 25.875 15.525
1702 4 29.325 25.875 22.425
1703 5 29.325 25.875 32.775
1704 5 29.325 32.77500000000001 5.175000000000001
1705 4 29.325 32.77500000000001 8.625000000000004
1706 3 29.325 32.77500000000001 15.525
1707 3 29.325 32.77500000000001 22.425
1708 3 29.325 32.77500000000001 25.875
1709 1 29.325 32.77500000000001 32.77500000000001
1710 2 29.325 1.724999999999998 12.075
1711 2 29.325 1.724999999999998 29.325
1712 4 29.325 1.725 1.725
1713 5 29.325 1.725 5.174999999999999
1714 5 29.325 1.725 8.625000000000002
1715 5 29.325 1.725 15.525
1716 1 29.325 1.725 18.975
1717 4 29.325 1.725 25.87500000000001
1718 2 29.325 1.725 32.775
1719 5 29.325 5.174999999999997 12.075
1720 3 29.325 5.174999999999997 29.325
1721 1 29.325 5.174999999999999 8.625
1722 3 29.325 5.174999999999999 18.975
1723 4 29.325 5.174999999999999 25.875
1724 4 29.325 8.625 8.625
1725 1 29.325 8.625 12.075
1726 3 29.325 8.625 18.975
1727 2 29.325 8.625 25.875
1728 3 29.325 8.625 29.325
1729 2 29.325 8.625000000000002 1.725000000000001
1730 4 29.325 8.625000000000002 5.174999999999997
1731 1 29.325 8.625000000000002 15.525
1732 5 29.325 8.625000000000002 22.425
1733 3 29.325 12.075 12.075
1734 5 29.325 12.075 18.975
1735 1 29.325 12.075 1.724999999999998
1736 2 29.325 12.075 5.174999999999997
1737 5 29.325 12.075 8.625
1738 5 29.325 12.075 15.525
1739 1 29.325 12.075 22.425
1740 5 29.325 12.075 25.875
1741 5 29.325 12.075 29.325
1742 2 29.325 12.075 32.775
1743 1 29.325 15.525 12.075
1744 5 29.325 15.525 18.975
1745 5 29.325 15.525 29.325
1746 2 29.325 15.525 1.724999999999998
1747 4 29.325 15.525 8.625000000000004
1748 5 29.325 15.525 15.525
1749 4 29.325 18.975 1.724999999999998
1750 5 29.325 18.975 5.175000000000001
1751 1 29.325 18.975 8.625
1752 3 29.325 18.975 12.075
1753 4 29.325 18.975 15.525
1754 5 29.325 18.975 18.975
1755 5 29.325 18.975 25.875
1756 5 29.325 18.975 29.32500000000001
1757 2 29.325 18.975 32.77499999999999
1758 3 29.325 22.425 8.625
1759 5 29.325 22.425 12.075
1760 2 29.325 22.425 29.325
1761 3 29.325 25.875 1.725000000000001
1762 3 29.325 25.875 5.174999999999997
1763 1 29.325 25.875 8.625
1764 4 29.325 25.875 12.075
1765 5 29.325 25.875 18.975
1766 4 29.325 25.875 25.875
1767 3 29.325 25.875 29.325
1768 5 29.325 29.325 1.724999999999998
1769 3 29.325 29.325 5.174999999999997
1770 1 29.325 29.325 8.625
1771 2 29.325 29.325 12.075
1772 4 29.325 29.325 15.525
1773 3 29.325 29.325 18.975
1774 5 29.325 29.325 22.425
1775 2 29.325 29.325 25.875
1776 4 29.325 29.325 29.325
1777 2 29.325 29.325 32.775
1778 2 29.325 32.775 1.724999999999998
1779 3 29.325 32.775 12.075
1780 3 29.325 32.775 18.975
1781 2 29.325 32.775 29.325
1782 1 31.05 1.915134717478395e-15 20.7
1783 3 31.05 3.450000000000001 20.7
1784 2 31.05 20.7 0
1785 2 31.05 20.7 3.450000000000003
1786 5 31.05 20.7 20.7
1787 5 31.05 0 0
1788 3 31.05 0 3.450000000000001
1789 3 31.05 0 13.8
1790 1 31.05 0 24.15000000000001
1791 5 31.05 0 31.05
1792 4 31.05 3.449999999999999 0
1793 3 31.05 3.449999999999999 3.449999999999999
1794 4 31.05 3.449999999999999 6.900000000000002
1795 2 31.05 3.449999999999999 13.8
1796 2 31.05 3.449999999999999 17.25
1797 3 31.05 3.449999999999999 24.15000000000001
1798 3 31.05 3.449999999999999 31.05
1799 4 31.05 6.900000000000002 0
1800 4 31.05 6.900000000000002 3.449999999999999
1801 3 31.05 6.900000000000002 13.8
1802 2 31.05 6.900000000000002 20.7
1803 5 31.05 6.900000000000002 31.05
1804 5 31.05 10.35 31.05
1805 2 31.05 13.8 0
1806 4 31.05 13.8 3.449999999999999
1807 4 31.05 13.8 6.900000000000002
1808 2 31.05 13.8 13.8
1809 3 31.05 13.8 20.7
1810 4 31.05 13.8 24.15
1811 1 31.05 13.8 27.6
1812 2 31.05 13.8 31.05
1813 1 31.05 17.25 3.449999999999999
1814 4 31.05 17.25 20.7
1815 1 31.05 17.25 24.15
1816 4 31.05 17.25 31.05
1817 1 31.05 20.7 6.900000000000002
1818 1 31.05 20.7 13.8
1819 1 31.05 20.7 17.25
1820 1 31.05 20.7 24.15000000000001
1821 3 31.05 20.7 27.60000000000001
1822 3 31.05 20.7 31.05
1823 4 31.05 24.15 0
1824 5 31.05 24.15 3.449999999999999
1825 1 31.05 24.15 13.8
1826 2 31.05 24.15 17.25000000000001
1827 1 31.05 24.15 20.7
1828 3 31.05 24.15 24.15
1829 5 31.05 24.15 31.05
1830 4 31.05 27.6 13.8
1831 1 31.05 27.6 20.7
1832 2 31.05 27.6 31.05
1833 2 31.05 31.05 0
1834 3 31.05 31.05 3.449999999999999
1835 2 31.05 31.05 6.900000000000002
1836 5 31.05 31.05 10.35
1837 5 31.05 31.05 13.8
1838 3 31.05 31.05 17.25
1839 1 31.05 31.05 20.7
1840 4 31.05 31.05 24.15
1841 4 31.05 31.05 27.6
1842 1 31.05 31.05 31.05
1843 5 31.05 3.449999999999998 10.35
1844 4 31.05 3.449999999999998 27.6
1845 2 31.05 6.899999999999999 10.35
1846 1 31.05 6.899999999999999 27.6
1847 1 31.05 6.9 6.899999999999999
1848 3 31.05 6.9 17.25
1849 1 31.05 6.9 24.15
1850 1 31.05 10.35 6.899999999999999
1851 1 31.05 10.35 10.35
1852 4 31.05 10.35 17.25
1853 2 31.05 10.35 24.15
1854 1 31.05 10.35 27.6
1855 2 31.05 10.35 0
1856 1 31.05 10.35 3.449999999999995
1857 5 31.05 10.35 13.8
1858 2 31.05 10.35 20.7
1859 2 31.05 13.8 10.35
1860 3 31.05 13.8 17.25
1861 5 31.05 17.25 6.900000000000002
1862 1 31.05 17.25 10.35
1863 4 31.05 17.25 13.8
1864 1 31.05 17.25 17.25
1865 5 31.05 17.25 27.6
1866 4 31.05 17.25 34.49999999999999
1867 5 31.05 20.7 10.35
1868 1 31.05 24.15 6.899999999999999
1869 3 31.05 24.15 10.35
1870 1 31.05 24.15 27.6
1871 2 31.05 27.6 0
1872 5 31.05 27.6 3.449999999999995
1873 3 31.05 27.6 6.899999999999999
1874 1 31.05 27.6 10.35
1875 2 31.05 27.6 17.25
1876 3 31.05 27.6 24.15
1877 4 31.05 27.6 27.6
1878 3 31.05 34.5 6.9
1879 1 31.05 34.5 10.35
1880 1 31.05 34.5 17.25
1881 5 31.05 34.5 27.6
1882 3 32.775 1.725 1.725000000000001
1883 5 32.775 1.725 12.075
1884 4 32.775 1.725 22.425
1885 3 32.775 1.725 29.325
1886 2 32.775 1.725000000000001 18.975
1887 4 32.775 5.175000000000002 18.975
1888 5 32.775 12.075 1.724999999999998
1889 4 32.775 12.075 12.075
1890 1 32.775 12.075 18.975
1891 2 32.775 12.075 29.325
1892 2 32.775 18.975 1.725000000000001
1893 1 32.775 18.975 5.175000000000004
1894 1 32.775 18.975 12.075
1895 5 32.775 18.975 18.975
1896 3 32.775 18.975 22.425
1897 3 32.775 18.975 29.325
1898 1 32.775 22.425 1.725000000000001
1899 4 32.775 22.425 18.975
1900 3 32.775 29.325 1.724999999999998
1901 4 32.775 29.325 12.075
1902 2 32.775 29.325 18.975
1903 4 32.775 29.325 29.325
1904 5 32.77500000000001 1.724999999999998 5.175000000000001
1905 5 32.77500000000001 1.724999999999998 8.625000000000004
1906 3 32.77500000000001 1.724999999999998 15.525
1907 1 32.77500000000001 1.724999999999998 25.875
1908 1 32.77500000000001 1.724999999999998 32.77500000000001
1909 2 32.77500000000001 5.175000000000001 1.724999999999998
1910 2 32.77500000000001 5.175000000000001 5.175000000000001
1911 5 32.77500000000001 5.175000000000001 12.075
1912 4 32.77500000000001 5.175000000000001 15.525
1913 1 32.77500000000001 5.175000000000001 22.425
1914 4 32.77500000000001 5.175000000000001 29.325
1915 2 32.77500000000001 5.175000000000001 32.775
1916 1 32.77500000000001 8.625000000000004 1.724999999999998
1917 4 32.77500000000001 8.625000000000004 12.075
1918 2 32.77500000000001 8.625000000000004 18.97499999999999
1919 3 32.77500000000001 8.625000000000004 29.325
1920 4 32.77500000000001 8.625000000000004 32.77500000000001
1921 5 32.77500000000001 12.075 5.175000000000001
1922 2 32.77500000000001 12.075 8.625000000000004
1923 3 32.77500000000001 12.075 15.525
1924 1 32.77500000000001 12.075 22.425
1925 2 32.77500000000001 12.075 25.875
1926 2 32.77500000000001 12.075 32.77500000000001
1927 1 32.77500000000001 15.525 1.724999999999998
1928 4 32.77500000000001 15.525 5.175000000000001
1929 4 32.77500000000001 15.525 12.075
1930 3 32.77500000000001 15.525 18.975
1931 3 32.77500000000001 15.525 22.425
1932 1 32.77500000000001 15.525 25.875
1933 4 32.77500000000001 15.525 29.325
1934 2 32.77500000000001 15.525 32.77500000000001
1935 5 32.77500000000001 18.975 8.625
1936 5 32.77500000000001 18.975 15.52500000000001
1937 1 32.77500000000001 18.975 25.875
1938 2 32.77500000000001 18.975 32.77500000000001
1939 3 32.77500000000001 22.425 5.175000000000001
1940 5 32.77500000000001 22.425 12.075
1941 1 32.77500000000001 22.425 15.525
1942 1 32.77500000000001 22.425 22.425
1943 4 32.77500000000001 22.425 25.87500000000001
1944 2 32.77500000000001 22.425 29.325
1945 4 32.77500000000001 22.425 32.775
1946 3 32.77500000000001 25.875 1.724999999999998
1947 3 32.77500000000001 25.875 12.075
1948 3 32.77500000000001 25.875 15.52500000000001
1949 5 32.77500000000001 25.875 18.97499999999999
1950 5 32.77500000000001 25.875 22.425
1951 2 32.77500000000001 25.875 29.325
1952 5 32.77500000000001 25.875 32.77500000000001
1953 4 32.77500000000001 29.325 5.175000000000001
1954 1 32.77500000000001 29.325 8.625000000000004
1955 1 32.77500000000001 29.325 15.525
1956 4 32.77500000000001 29.325 22.425
1957 3 32.77500000000001 29.325 25.875
1958 5 32.77500000000001 29.325 32.77500000000001
1959 4 32.77500000000001 32.77500000000001 1.724999999999998
1960 4 32.77500000000001 32.77500000000001 5.175000000000001
1961 2 32.77500000000001 32.77500000000001 8.625000000000004
1962 3 32.77500000000001 32.77500000000001 12.075
1963 4 32.77500000000001 32.77500000000001 15.525
1964 1 32.77500000000001 32.77500000000001 18.975
1965 1 32.77500000000001 32.77500000000001 22.425
1966 2 32.77500000000001 32.77500000000001 25.875
1967 2 32.77500000000001 32.77500000000001 29.325
1968 3 32.77500000000001 32.77500000000001 32.77500000000001
1969 2 32.77500000000001 5.174999999999999 8.625
1970 5 32.77500000000001 5.174999999999999 25.875
1971 1 32.77500000000001 8.625 8.625
1972 5 32.77500000000001 8.625 25.875
1973 3 32.77500000000001 8.625000000000002 5.174999999999997
1974 1 32.77500000000001 8.625000000000002 15.525
1975 5 32.77500000000001 8.625000000000002 22.425
1976 3 32.77500000000001 15.525 8.625000000000004
1977 4 32.77500000000001 15.525 15.525
1978 2 32.77500000000001 22.425 8.625
1979 2 32.77500000000001 25.875 5.174999999999997
1980 4 32.77500000000001 25.875 8.625
1981 2 32.77500000000001 25.875 25.875
1982 5 34.5 3.450000000000001 6.9
1983 5 34.5 3.450000000000002 17.25
1984 5 34.5 6.9 3.45
1985 3 34.5 6.900000000000001 13.8
1986 3 34.5 6.900000000000001 17.25
1987 2 34.5 6.900000000000001 31.05
1988 2 34.5 10.35 31.05
1989 2 34.5 13.8 6.9
1990 1 34.5 13.8 27.6
1991 1 34.5 17.25 3.450000000000001
1992 4 34.5 17.25 24.15000000000001
1993 2 34.5 17.25 31.05
1994 3 34.5 24.15000000000001 17.25
1995 5 34.5 27.6 13.8
1996 3 34.5 27.6 31.05
1997 4 34.5 31.05 6.9
1998 1 34.5 31.05 10.35
1999 2 34.5 31.05 17.25
2000 3 34.5 31.05 27.6
