# FCC HfMoTaTiZr; n=2000; seed=20263852

2000 atoms
5 atom types

0.0 35.33956706016642 xlo xhi
0.0 35.33551040319843 ylo yhi
0.0 32.95832876727872 zlo zhi
-0.5354479857600973 5.529192024377544e-16 -1.338773643289953 xy xz yz

Masses

1 178.49 # Hf
2 95.95 # Mo
3 180.94788 # Ta
4 47.867 # Ti
5 91.224 # Zr

Atoms # atomic

1 1 0 0 0
2 4 -0.2677239928800428 17.66775520159922 1.143471732831203e-16
3 4 5.555443582159008e-16 1.071018914631961 31.04674569877655
4 4 -0.2677239928800432 18.73877411623117 31.04674569877655
5 4 2.542693170511514e-15 3.480811472553873 29.13516263027438
6 3 -0.2677239928800432 21.14856667415309 29.13516263027438
7 2 5.677335636761007e-16 5.890604030475787 27.22357956177221
8 5 -0.2677239928800427 23.558359232075 27.22357956177222
9 5 2.506310118644364e-15 8.300396588397703 25.31199649327005
10 5 -0.2677239928800422 25.96815178999692 25.31199649327005
11 2 3.501197102681244e-15 10.71018914631962 23.40041342476789
12 2 -0.2677239928800418 28.37794434791883 23.40041342476789
13 1 3.469127788939854e-15 13.11998170424153 21.48883035626572
14 3 -0.2677239928800403 30.78773690584075 21.48883035626572
15 2 3.992169987511042e-15 15.52977426216344 19.57724728776355
16 3 -0.2677239928800413 33.19752946376266 19.57724728776356
17 3 0.2677239928800492 0.2718116184861401 17.66566421926139
18 5 4.459701034850973e-15 17.93956682008536 17.66566421926139
19 5 0.2677239928800503 2.681604176408053 15.75408115075922
20 3 4.871720930959646e-15 20.34935937800728 15.75408115075922
21 3 0.2677239928800502 5.091396734329968 13.84249808225706
22 4 5.394763129530835e-15 22.75915193592919 13.84249808225706
23 5 0.2677239928800507 7.501189292251882 11.93091501375489
24 1 6.361894537952086e-15 25.1689444938511 11.93091501375489
25 2 0.2677239928800512 9.910981850173796 10.01933194525273
26 2 6.385336375441954e-15 27.57873705177302 10.01933194525273
27 3 0.2677239928800517 12.32077440809571 8.107748876750565
28 4 6.408778212931822e-15 29.98852960969493 8.107748876750563
29 5 0.2677239928800522 14.73056696601762 6.196165808248399
30 2 6.321197747959174e-15 32.39832216761685 6.196165808248397
31 3 0.2677239928800522 17.14035952393954 4.284582739746233
32 5 8.398552181005583e-15 34.80811472553876 4.284582739746229
33 4 0.5354479857600976 1.882396880262236 2.372999671244068
34 2 0.2677239928800552 19.55015208186145 2.372999671244068
35 4 0.535447985760098 4.29218943818415 0.4614166027419019
36 3 0.2677239928800532 21.95994463978337 0.4614166027419025
37 4 0.5354479857601006 5.363208352816106 31.50816230151845
38 2 0.2677239928800537 23.03096355441533 31.50816230151845
39 3 0.5354479857600983 7.77300091073802 29.59657923301628
40 5 0.2677239928800542 25.44075611233724 29.59657923301629
41 1 0.5354479857601004 10.18279346865994 27.68499616451412
42 2 0.2677239928800547 27.85054867025915 27.68499616451412
43 5 0.5354479857601014 12.59258602658185 25.77341309601196
44 3 0.2677239928800551 30.26034122818107 25.77341309601196
45 5 0.5354479857601014 15.00237858450376 23.86183002750979
46 4 0.2677239928800566 32.67013378610299 23.86183002750979
47 2 0.8031719786401451 -0.2555840591735402 21.95024695900762
48 4 0.5354479857601019 17.41217114242568 21.95024695900762
49 2 0.8031719786401471 2.154208498748375 20.03866389050545
50 2 0.5354479857601023 19.82196370034759 20.03866389050546
51 5 0.8031719786401471 4.564001056670289 18.12708082200329
52 3 0.5354479857601029 22.23175625826951 18.12708082200329
53 2 0.8031719786401481 6.973793614592203 16.21549775350113
54 1 0.5354479857601033 24.64154881619142 16.21549775350113
55 3 0.8031719786401481 9.383586172514118 14.30391468499896
56 2 0.5354479857601042 27.05134137411333 14.30391468499896
57 4 0.8031719786401486 11.79337873043603 12.3923316164968
58 4 0.5354479857601043 29.46113393203525 12.3923316164968
59 3 0.8031719786401492 14.20317128835795 10.48074854799463
60 5 0.5354479857601043 31.87092648995716 10.48074854799463
61 5 0.8031719786401496 16.61296384627986 8.569165479492465
62 1 0.5354479857601043 34.28071904787908 8.569165479492467
63 1 1.070895971520195 1.355001202602557 6.6575824109903
64 5 0.803171978640149 19.02275640420178 6.657582410990299
65 1 1.070895971520195 3.764793760524471 4.745999342488135
66 1 0.8031719786401509 21.43254896212369 4.745999342488133
67 3 1.070895971520196 6.174586318446385 2.834416273985969
68 1 0.803171978640151 23.8423415200456 2.834416273985968
69 1 1.070895971520196 8.5843788763683 0.9228332054838039
70 3 0.803171978640149 26.25213407796751 0.9228332054838032
71 1 1.070895971520196 9.655397791000254 31.96957890426035
72 2 0.803171978640152 27.32315299259947 31.96957890426035
73 3 1.070895971520198 12.06519034892217 30.05799583575818
74 2 0.8031719786401527 29.73294555052139 30.05799583575818
75 5 1.070895971520198 14.47498290684408 28.14641276725602
76 1 0.8031719786401529 32.1427381084433 28.14641276725602
77 4 1.338619964400243 -0.782979736833217 26.23482969875386
78 1 1.070895971520198 16.884775464766 26.23482969875386
79 2 1.338619964400243 1.626812821088697 24.32324663025169
80 1 1.070895971520199 19.29456802268791 24.32324663025169
81 3 1.338619964400243 4.036605379010611 22.41166356174952
82 2 1.070895971520199 21.70436058060983 22.41166356174952
83 2 1.338619964400245 6.446397936932524 20.50008049324736
84 5 1.0708959715202 24.11415313853174 20.50008049324736
85 1 1.338619964400245 8.85619049485444 18.5884974247452
86 4 1.0708959715202 26.52394569645366 18.58849742474519
87 5 1.338619964400245 11.26598305277635 16.67691435624303
88 3 1.070895971520201 28.93373825437557 16.67691435624303
89 1 1.338619964400246 13.67577561069827 14.76533128774086
90 5 1.070895971520201 31.34353081229748 14.76533128774086
91 3 1.338619964400246 16.08556816862018 12.8537482192387
92 2 1.0708959715202 33.7533233702194 12.8537482192387
93 2 1.606343957280292 0.827605524942878 10.94216515073653
94 5 1.338619964400247 18.4953607265421 10.94216515073653
95 5 1.606343957280292 3.237398082864793 9.030582082234368
96 1 1.338619964400247 20.90515328446401 9.030582082234369
97 1 1.606343957280293 5.647190640786707 7.118999013732202
98 4 1.338619964400249 23.31494584238592 7.118999013732203
99 1 1.606343957280293 8.05698319870862 5.207415945230036
100 4 1.338619964400249 25.72473840030784 5.207415945230038
101 4 1.606343957280294 10.46677575663053 3.295832876727871
102 1 1.338619964400247 28.13453095822975 3.295832876727872
103 3 1.606343957280294 12.87656831455245 1.384249808225706
104 3 1.338619964400249 30.54432351615166 1.384249808225708
105 3 1.606343957280296 13.94758722918441 32.43099550700225
106 3 1.33861996440025 31.61534243078362 32.43099550700226
107 5 1.606343957280296 16.35737978710632 30.51941243850009
108 1 1.338619964400251 34.02513498870555 30.51941243850009
109 3 1.874067950160341 1.099417143429019 28.60782936999792
110 4 1.606343957280296 18.76717234502824 28.60782936999792
111 3 1.874067950160341 3.50920970135093 26.69624630149576
112 5 1.606343957280297 21.17696490295015 26.69624630149575
113 1 1.874067950160341 5.919002259272846 24.78466323299359
114 4 1.606343957280297 23.58675746087206 24.78466323299359
115 2 1.874067950160343 8.328794817194758 22.87308016449143
116 2 1.606343957280298 25.99655001879398 22.87308016449143
117 4 1.874067950160343 10.73858737511667 20.96149709598926
118 2 1.606343957280298 28.40634257671589 20.96149709598926
119 3 1.874067950160343 13.14837993303859 19.04991402748709
120 5 1.606343957280299 30.81613513463781 19.04991402748709
121 4 1.874067950160344 15.5581724909605 17.13833095898493
122 1 1.606343957280299 33.22592769255971 17.13833095898493
123 3 2.14179194304039 0.3002098472831999 15.22674789048276
124 2 1.874067950160345 17.96796504888242 15.22674789048276
125 2 2.14179194304039 2.710002405205113 13.3151648219806
126 5 1.874067950160345 20.37775760680433 13.3151648219806
127 4 2.14179194304039 5.119794963127029 11.40358175347843
128 5 1.874067950160345 22.78755016472625 11.40358175347843
129 4 2.14179194304039 7.529587521048942 9.49199868497627
130 3 1.874067950160347 25.19734272264816 9.49199868497627
131 3 2.141791943040391 9.939380078970855 7.580415616474104
132 3 1.874067950160347 27.60713528057008 7.580415616474104
133 3 2.141791943040392 12.34917263689277 5.668832547971938
134 4 1.874067950160344 30.01692783849199 5.668832547971938
135 1 2.141791943040391 14.75896519481469 3.757249479469773
136 2 1.874067950160347 32.42672039641391 3.757249479469773
137 3 2.141791943040392 17.1687577527366 1.845666410967608
138 5 1.874067950160348 34.83651295433581 1.845666410967606
139 1 2.409515935920439 0.5720214657693421 32.89241210974416
140 3 2.141791943040394 18.23977666736856 32.89241210974416
141 5 2.409515935920439 2.981814023691256 30.98082904124199
142 3 2.141791943040394 20.64956922529047 30.98082904124199
143 2 2.409515935920439 5.391606581613169 29.06924597273982
144 5 2.141791943040394 23.05936178321238 29.06924597273982
145 5 2.409515935920438 7.801399139535085 27.15766290423766
146 5 2.141791943040395 25.4691543411343 27.15766290423766
147 5 2.409515935920441 10.211191697457 25.24607983573549
148 4 2.141791943040396 27.87894689905622 25.2460798357355
149 3 2.409515935920441 12.62098425537891 23.33449676723333
150 1 2.141791943040396 30.28873945697813 23.33449676723333
151 4 2.409515935920441 15.03077681330083 21.42291369873116
152 3 2.141791943040397 32.69853201490005 21.42291369873116
153 4 2.677239928800487 -0.2271858303764787 19.511330630229
154 1 2.409515935920442 17.44056937122274 19.51133063022899
155 4 2.677239928800487 2.182606727545435 17.59974756172684
156 2 2.409515935920442 19.85036192914465 17.59974756172683
157 1 2.677239928800487 4.592399285467349 15.68816449322467
158 5 2.409515935920443 22.26015448706657 15.68816449322467
159 4 2.677239928800488 7.002191843389263 13.7765814247225
160 4 2.409515935920443 24.66994704498848 13.7765814247225
161 3 2.677239928800488 9.411984401311178 11.86499835622034
162 4 2.409515935920445 27.07973960291039 11.86499835622033
163 3 2.677239928800489 11.82177695923309 9.953415287718173
164 5 2.409515935920445 29.48953216083231 9.953415287718169
165 5 2.677239928800489 14.23156951715501 8.041832219216007
166 1 2.409515935920442 31.89932471875423 8.041832219216005
167 1 2.67723992880049 16.64136207507692 6.130249150713841
168 3 2.409515935920444 34.30911727667614 6.130249150713839
169 4 2.944963921680535 1.383399431399617 4.218666082211675
170 3 2.67723992880049 19.05115463299883 4.218666082211675
171 5 2.944963921680535 3.79319198932153 2.30708301370951
172 3 2.677239928800494 21.46094719092074 2.30708301370951
173 1 2.944963921680536 6.202984547243445 0.3954999452073445
174 5 2.67723992880049 23.87073974884266 0.3954999452073451
175 5 2.944963921680537 7.274003461875402 31.44224564398389
176 3 2.677239928800491 24.94175866347462 31.44224564398389
177 3 2.944963921680537 9.683796019797319 29.53066257548172
178 1 2.677239928800492 27.35155122139653 29.53066257548173
179 2 2.944963921680539 12.09358857771923 27.61907950697956
180 3 2.677239928800492 29.76134377931845 27.61907950697957
181 3 2.944963921680539 14.50338113564115 25.7074964384774
182 4 2.677239928800493 32.17113633724036 25.7074964384774
183 5 3.212687914560581 -0.7545815080361573 23.79591336997523
184 5 2.944963921680539 16.91317369356306 23.79591336997523
185 2 3.212687914560584 1.655211049885756 21.88433030147306
186 3 2.944963921680539 19.32296625148497 21.88433030147306
187 2 3.212687914560586 4.06500360780767 19.9727472329709
188 2 2.94496392168054 21.73275880940689 19.9727472329709
189 3 3.212687914560584 6.474796165729585 18.06116416446874
190 2 2.944963921680541 24.1425513673288 18.06116416446874
191 2 3.212687914560586 8.884588723651499 16.14958109596657
192 1 2.944963921680541 26.55234392525072 16.14958109596657
193 1 3.212687914560586 11.29438128157341 14.2379980274644
194 4 2.944963921680543 28.96213648317263 14.23799802746441
195 4 3.212687914560586 13.70417383949533 12.32641495896224
196 3 2.944963921680542 31.37192904109455 12.32641495896224
197 1 3.212687914560587 16.11396639741724 10.41483189046007
198 1 2.94496392168054 33.78172159901646 10.41483189046007
199 3 3.480411907440632 0.8560037537399383 8.503248821957909
200 1 3.212687914560587 18.52375895533916 8.503248821957907
201 2 3.480411907440632 3.265796311661852 6.591665753455742
202 4 3.212687914560587 20.93355151326107 6.591665753455741
203 5 3.480411907440633 5.675588869583765 4.680082684953577
204 1 3.212687914560589 23.34334407118298 4.680082684953576
205 1 3.480411907440633 8.085381427505679 2.768499616451412
206 5 3.212687914560587 25.7531366291049 2.768499616451411
207 1 3.480411907440633 10.49517398542759 0.8569165479492465
208 2 3.212687914560588 28.16292918702681 0.8569165479492458
209 2 3.480411907440634 11.56619290005955 31.90366224672579
210 1 3.21268791456059 29.23394810165877 31.90366224672579
211 3 3.480411907440637 13.97598545798146 29.99207917822363
212 2 3.21268791456059 31.64374065958069 29.99207917822363
213 1 3.480411907440636 16.38577801590338 28.08049610972146
214 1 3.212687914560591 34.0535332175026 28.08049610972146
215 5 3.748135900320679 1.127815372226078 26.1689130412193
216 1 3.480411907440636 18.79557057382529 26.1689130412193
217 5 3.748135900320681 3.537607930147993 24.25732997271713
218 4 3.480411907440637 21.20536313174721 24.25732997271713
219 1 3.748135900320682 5.947400488069905 22.34574690421497
220 4 3.480411907440637 23.61515568966912 22.34574690421497
221 2 3.748135900320682 8.357193045991821 20.4341638357128
222 2 3.480411907440638 26.02494824759104 20.4341638357128
223 4 3.748135900320683 10.76698560391373 18.52258076721064
224 4 3.480411907440637 28.43474080551295 18.52258076721064
225 1 3.748135900320683 13.17677816183565 16.61099769870847
226 3 3.48041190744064 30.84453336343486 16.61099769870847
227 2 3.748135900320684 15.58657071975756 14.69941463020631
228 5 3.48041190744064 33.25432592135678 14.69941463020631
229 2 4.015859893200728 0.32860807608026 12.78783156170414
230 2 3.748135900320683 17.99636327767948 12.78783156170414
231 1 4.015859893200729 2.738400634002173 10.87624849320197
232 2 3.748135900320684 20.40615583560139 10.87624849320198
233 1 4.015859893200729 5.148193191924087 8.96466542469981
234 1 3.748135900320685 22.8159483935233 8.964665424699811
235 3 4.015859893200731 7.557985749846002 7.053082356197644
236 4 3.748135900320687 25.22574095144522 7.053082356197645
237 1 4.015859893200731 9.967778307767917 5.141499287695479
238 1 3.748135900320685 27.63553350936714 5.14149928769548
239 4 4.015859893200731 12.37757086568983 3.229916219193314
240 1 3.748135900320685 30.04532606728905 3.229916219193315
241 4 4.015859893200732 14.78736342361174 1.318333150691148
242 2 3.748135900320687 32.45511862521096 1.31833315069115
243 1 4.015859893200735 15.8583823382437 32.36507884946769
244 2 3.748135900320688 33.52613753984292 32.3650788494677
245 5 4.28358388608078 0.6004196945663998 30.45349578096553
246 1 4.015859893200734 18.26817489616561 30.45349578096553
247 1 4.283583886080778 3.010212252488314 28.54191271246336
248 5 4.015859893200735 20.67796745408753 28.54191271246336
249 4 4.28358388608078 5.420004810410227 26.6303296439612
250 2 4.015859893200735 23.08776001200944 26.6303296439612
251 2 4.283583886080779 7.82979736833214 24.71874657545904
252 5 4.015859893200734 25.49755256993136 24.71874657545903
253 3 4.28358388608078 10.23958992625406 22.80716350695687
254 3 4.015859893200735 27.90734512785327 22.80716350695687
255 5 4.28358388608078 12.64938248417597 20.8955804384547
256 2 4.015859893200735 30.31713768577519 20.8955804384547
257 3 4.28358388608078 15.05917504209788 18.98399736995254
258 4 4.015859893200737 32.7269302436971 18.98399736995253
259 4 4.551307878960827 -0.1987876015794192 17.07241430145038
260 5 4.283583886080781 17.4689676000198 17.07241430145038
261 5 4.551307878960826 2.211004956342495 15.16083123294821
262 5 4.283583886080782 19.87876015794171 15.16083123294821
263 1 4.551307878960827 4.620797514264409 13.24924816444604
264 2 4.283583886080782 22.28855271586363 13.24924816444604
265 2 4.551307878960828 7.030590072186324 11.33766509594388
266 2 4.283583886080783 24.69834527378554 11.33766509594388
267 3 4.551307878960828 9.440382630108237 9.426082027441712
268 4 4.283583886080785 27.10813783170746 9.426082027441712
269 4 4.551307878960829 11.85017518803015 7.514498958939546
270 1 4.283583886080782 29.51793038962937 7.514498958939546
271 3 4.551307878960829 14.25996774595207 5.602915890437381
272 2 4.283583886080782 31.92772294755128 5.602915890437381
273 5 4.55130787896083 16.66976030387398 3.691332821935216
274 3 4.283583886080784 34.3375155054732 3.691332821935216
275 1 4.819031871840875 1.411797660196677 1.77974975343305
276 5 4.551307878960831 19.0795528617959 1.77974975343305
277 4 4.819031871840878 2.482816574828637 32.8264954522096
278 2 4.551307878960832 20.15057177642785 32.8264954522096
279 1 4.819031871840876 4.892609132750551 30.91491238370743
280 2 4.551307878960833 22.56036433434977 30.91491238370743
281 3 4.819031871840878 7.302401690672465 29.00332931520527
282 3 4.551307878960833 24.97015689227168 29.00332931520527
283 4 4.819031871840878 9.712194248594377 27.0917462467031
284 2 4.551307878960833 27.3799494501936 27.0917462467031
285 5 4.819031871840878 12.12198680651629 25.18016317820094
286 4 4.551307878960833 29.78974200811551 25.18016317820094
287 4 4.819031871840878 14.53177936443821 23.26858010969877
288 2 4.551307878960833 32.19953456603743 23.26858010969877
289 3 5.086755864720923 -0.7261832792390976 21.3569970411966
290 5 4.819031871840878 16.94157192236012 21.3569970411966
291 3 5.086755864720926 1.683609278682816 19.44541397269444
292 5 4.819031871840878 19.35136448028204 19.44541397269444
293 3 5.086755864720923 4.09340183660473 17.53383090419228
294 5 4.819031871840879 21.76115703820395 17.53383090419227
295 1 5.086755864720925 6.503194394526644 15.62224783569011
296 4 4.819031871840879 24.17094959612587 15.62224783569011
297 1 5.086755864720925 8.912986952448557 13.71066476718794
298 3 4.81903187184088 26.58074215404778 13.71066476718794
299 1 5.086755864720925 11.32277951037047 11.79908169868578
300 2 4.819031871840882 28.99053471196969 11.79908169868578
301 5 5.086755864720926 13.73257206829239 9.887498630183615
302 5 4.81903187184088 31.40032726989161 9.887498630183613
303 2 5.086755864720926 16.1423646262143 7.975915561681449
304 2 4.81903187184088 33.81011982781352 7.975915561681447
305 2 5.354479857600972 0.8844019825369981 6.064332493179283
306 4 5.086755864720927 18.55215718413622 6.064332493179283
307 2 5.354479857600972 3.294194540458912 4.152749424677118
308 4 5.086755864720928 20.96194974205813 4.152749424677118
309 1 5.354479857600973 5.703987098380826 2.241166356174952
310 5 5.08675586472093 23.37174229998004 2.241166356174953
311 3 5.354479857600973 8.113779656302739 0.3295832876727871
312 2 5.086755864720927 25.78153485790196 0.3295832876727877
313 3 5.354479857600975 9.184798570934698 31.37632898644933
314 3 5.08675586472093 26.85255377253392 31.37632898644933
315 5 5.354479857600975 11.59459112885661 29.46474591794717
316 5 5.086755864720931 29.26234633045583 29.46474591794717
317 4 5.354479857600976 14.00438368677853 27.55316284944501
318 4 5.086755864720931 31.67213888837774 27.55316284944501
319 4 5.354479857600976 16.41417624470044 25.64157978094284
320 1 5.08675586472093 34.08193144629966 25.64157978094284
321 4 5.622203850481019 1.156213601023139 23.72999671244067
322 5 5.354479857600976 18.82396880262236 23.72999671244067
323 3 5.622203850481021 3.566006158945051 21.81841364393851
324 5 5.354479857600976 21.23376136054427 21.81841364393851
325 2 5.622203850481022 5.975798716866966 19.90683057543634
326 1 5.354479857600977 23.64355391846619 19.90683057543635
327 5 5.622203850481021 8.385591274788879 17.99524750693418
328 3 5.354479857600977 26.0533464763881 17.99524750693418
329 5 5.622203850481023 10.7953838327108 16.08366443843201
330 4 5.354479857600978 28.46313903431001 16.08366443843201
331 5 5.622203850481023 13.20517639063271 14.17208136992985
332 1 5.354479857600981 30.87293159223193 14.17208136992985
333 2 5.622203850481023 15.61496894855462 12.26049830142768
334 4 5.354479857600979 33.28272415015384 12.26049830142768
335 4 5.889927843361068 0.3570063048773198 10.34891523292552
336 3 5.622203850481023 18.02476150647654 10.34891523292552
337 2 5.88992784336107 2.766798862799233 8.437332164423351
338 1 5.622203850481025 20.43455406439845 8.437332164423349
339 3 5.88992784336107 5.176591420721147 6.525749095921185
340 4 5.622203850481026 22.84434662232037 6.525749095921184
341 1 5.88992784336107 7.58638397864306 4.61416602741902
342 2 5.622203850481026 25.25413918024228 4.614166027419019
343 4 5.88992784336107 9.996176536564978 2.702582958916854
344 1 5.622203850481026 27.66393173816419 2.702582958916854
345 4 5.889927843361073 12.40596909448689 0.7909998904146891
346 4 5.622203850481026 30.07372429608611 0.7909998904146882
347 3 5.889927843361074 13.47698800911884 31.83774558919124
348 3 5.622203850481029 31.14474321071806 31.83774558919123
349 1 5.889927843361074 15.88678056704076 29.92616252068907
350 5 5.622203850481029 33.55453576863998 29.92616252068907
351 2 6.157651836241118 0.6288179233634592 28.01457945218691
352 4 5.889927843361074 18.29657312496267 28.0145794521869
353 1 6.157651836241117 3.038610481285374 26.10299638368474
354 4 5.889927843361074 20.70636568288459 26.10299638368474
355 5 6.157651836241119 5.448403039207289 24.19141331518258
356 3 5.889927843361074 23.1161582408065 24.19141331518258
357 5 6.157651836241119 7.858195597129201 22.27983024668041
358 4 5.889927843361074 25.52595079872842 22.27983024668041
359 1 6.157651836241119 10.26798815505112 20.36824717817825
360 4 5.889927843361074 27.93574335665033 20.36824717817824
361 3 6.15765183624112 12.67778071297303 18.45666410967608
362 4 5.889927843361075 30.34553591457224 18.45666410967608
363 2 6.157651836241121 15.08757327089494 16.54508104117392
364 4 5.889927843361077 32.75532847249416 16.54508104117392
365 4 6.425375829121167 -0.170389372782359 14.63349797267175
366 2 6.15765183624112 17.49736582881686 14.63349797267175
367 5 6.425375829121166 2.239403185139555 12.72191490416958
368 1 6.15765183624112 19.90715838673877 12.72191490416958
369 5 6.425375829121167 4.649195743061469 10.81033183566742
370 1 6.157651836241122 22.31695094466069 10.81033183566742
371 1 6.425375829121168 7.058988300983382 8.898748767165252
372 5 6.157651836241123 24.7267435025826 8.898748767165253
373 4 6.425375829121167 9.468780858905296 6.987165698663087
374 5 6.157651836241123 27.13653606050452 6.987165698663088
375 5 6.425375829121167 11.87857341682721 5.075582630160921
376 3 6.157651836241123 29.54632861842643 5.075582630160923
377 5 6.425375829121169 14.28836597474913 3.163999561658756
378 5 6.157651836241123 31.95612117634834 3.163999561658758
379 4 6.42537582912117 16.69815853267104 1.25241649315659
380 2 6.157651836241123 34.36591373427025 1.252416493156592
381 3 6.693099822001215 0.1014222457037808 32.29916219193314
382 5 6.425375829121172 17.769177447303 32.29916219193314
383 5 6.693099822001216 2.511214803625695 30.38757912343097
384 1 6.425375829121171 20.17897000522491 30.38757912343097
385 1 6.693099822001216 4.92100736154761 28.47599605492881
386 3 6.425375829121172 22.58876256314683 28.47599605492881
387 5 6.693099822001217 7.330799919469522 26.56441298642664
388 3 6.425375829121172 24.99855512106874 26.56441298642664
389 1 6.693099822001216 9.740592477391436 24.65282991792448
390 2 6.425375829121172 27.40834767899065 24.65282991792447
391 1 6.693099822001217 12.15038503531335 22.74124684942231
392 2 6.425375829121172 29.81814023691257 22.74124684942231
393 2 6.693099822001217 14.56017759323526 20.82966378092014
394 2 6.425375829121173 32.22793279483448 20.82966378092014
395 3 6.960823814881263 -0.697785050442038 18.91808071241798
396 4 6.693099822001218 16.96997015115718 18.91808071241798
397 5 6.960823814881264 1.712007507479877 17.00649764391582
398 4 6.693099822001218 19.37976270907909 17.00649764391582
399 1 6.960823814881263 4.121800065401791 15.09491457541365
400 2 6.693099822001219 21.78955526700101 15.09491457541365
401 2 6.960823814881264 6.531592623323704 13.18333150691148
402 3 6.69309982200122 24.19934782492292 13.18333150691148
403 5 6.960823814881266 8.941385181245618 11.27174843840932
404 5 6.693099822001221 26.60914038284483 11.27174843840932
405 3 6.960823814881266 11.35117773916753 9.360165369907154
406 1 6.693099822001221 29.01893294076675 9.360165369907154
407 5 6.960823814881266 13.76097029708945 7.448582301404989
408 1 6.693099822001221 31.42872549868866 7.448582301404989
409 2 6.960823814881267 16.17076285501136 5.536999232902824
410 3 6.693099822001221 33.83851805661057 5.536999232902824
411 2 7.228547807761313 0.9128002113340579 3.625416164400658
412 1 6.960823814881268 18.58055541293328 3.625416164400658
413 3 7.228547807761313 3.322592769255972 1.713833095898493
414 2 6.960823814881267 20.99034797085519 1.713833095898493
415 5 7.228547807761314 4.393611683887933 32.76057879467504
416 2 6.960823814881269 22.06136688548715 32.76057879467504
417 1 7.228547807761314 6.803404241809848 30.84899572617288
418 4 6.96082381488127 24.47115944340906 30.84899572617288
419 5 7.228547807761315 9.213196799731758 28.93741265767071
420 3 6.960823814881271 26.88095200133098 28.93741265767071
421 4 7.228547807761315 11.62298935765368 27.02582958916854
422 4 6.960823814881271 29.29074455925289 27.02582958916854
423 5 7.228547807761315 14.03278191557559 25.11424652066638
424 1 6.96082381488127 31.70053711717481 25.11424652066638
425 2 7.228547807761315 16.4425744734975 23.20266345216421
426 3 6.960823814881271 34.11032967509671 23.20266345216421
427 5 7.496271800641361 1.184611829820198 21.29108038366205
428 5 7.228547807761317 18.85236703141942 21.29108038366205
429 2 7.496271800641362 3.594404387742112 19.37949731515988
430 4 7.228547807761317 21.26215958934133 19.37949731515988
431 3 7.496271800641361 6.004196945664027 17.46791424665772
432 4 7.228547807761317 23.67195214726325 17.46791424665772
433 5 7.496271800641363 8.41398950358594 15.55633117815555
434 5 7.228547807761318 26.08174470518516 15.55633117815555
435 4 7.496271800641364 10.82378206150785 13.64474810965339
436 5 7.228547807761319 28.49153726310708 13.64474810965338
437 5 7.496271800641364 13.23357461942977 11.73316504115122
438 4 7.228547807761318 30.90132982102899 11.73316504115122
439 2 7.496271800641364 15.64336717735168 9.821581972649057
440 3 7.228547807761318 33.31112237895091 9.821581972649055
441 1 7.76399579352141 0.3854045336743794 7.909998904146891
442 1 7.496271800641365 18.0531597352736 7.909998904146891
443 1 7.763995793521411 2.795197091596294 5.998415835644726
444 3 7.496271800641365 20.46295229319551 5.998415835644726
445 1 7.763995793521411 5.204989649518208 4.08683276714256
446 3 7.496271800641365 22.87274485111742 4.08683276714256
447 1 7.763995793521411 7.614782207440122 2.175249698640395
448 5 7.496271800641368 25.28253740903934 2.175249698640395
449 2 7.763995793521412 10.02457476536204 0.2636666301382296
450 5 7.496271800641365 27.69232996696125 0.2636666301382302
451 5 7.763995793521413 11.09559367999399 31.31041232891478
452 5 7.496271800641367 28.76334888159321 31.31041232891478
453 2 7.763995793521413 13.50538623791591 29.39882926041261
454 3 7.496271800641368 31.17314143951512 29.39882926041262
455 1 7.763995793521413 15.91517879583782 27.48724619191045
456 4 7.496271800641368 33.58293399743704 27.48724619191045
457 4 8.031719786401457 0.65721615216052 25.57566312340828
458 5 7.763995793521413 18.32497135375974 25.57566312340828
459 2 8.031719786401457 3.067008710082434 23.66408005490612
460 5 7.763995793521413 20.73476391168165 23.66408005490612
461 3 8.031719786401458 5.476801268004347 21.75249698640395
462 5 7.763995793521413 23.14455646960356 21.75249698640395
463 1 8.031719786401458 7.88659382592626 19.84091391790178
464 4 7.763995793521413 25.55434902752548 19.84091391790179
465 4 8.031719786401458 10.29638638384817 17.92933084939962
466 5 7.763995793521415 27.96414158544739 17.92933084939962
467 4 8.03171978640146 12.70617894177009 16.01774778089745
468 2 7.763995793521417 30.37393414336931 16.01774778089746
469 5 8.031719786401462 15.115971499692 14.10616471239529
470 3 7.763995793521417 32.78372670129122 14.10616471239529
471 2 8.299443779281505 -0.1419911439852992 12.19458164389312
472 2 8.031719786401462 17.52576405761392 12.19458164389312
473 4 8.299443779281505 2.267801413936615 10.28299857539096
474 5 8.031719786401462 19.93555661553583 10.28299857539096
475 3 8.299443779281509 4.677593971858529 8.371415506888793
476 1 8.031719786401464 22.34534917345775 8.371415506888791
477 5 8.299443779281509 7.087386529780442 6.459832438386628
478 1 8.031719786401462 24.75514173137966 6.459832438386627
479 1 8.299443779281509 9.497179087702358 4.548249369884462
480 5 8.031719786401464 27.16493428930158 4.548249369884461
481 4 8.299443779281509 11.90697164562427 2.636666301382297
482 1 8.031719786401464 29.57472684722349 2.636666301382296
483 5 8.299443779281511 14.31676420354619 0.7250832328801315
484 2 8.031719786401462 31.9845194051454 0.7250832328801308
485 2 8.299443779281509 15.38778311817814 31.77182893165668
486 1 8.031719786401464 33.05553831977736 31.77182893165668
487 5 8.567167772161554 0.1298204745008402 29.86024586315451
488 4 8.299443779281511 17.79757567610005 29.86024586315451
489 3 8.567167772161556 2.539613032422755 27.94866279465235
490 5 8.299443779281511 20.20736823402197 27.94866279465235
491 3 8.567167772161556 4.949405590344669 26.03707972615019
492 2 8.299443779281511 22.61716079194388 26.03707972615018
493 3 8.567167772161556 7.359198148266584 24.12549665764802
494 5 8.299443779281512 25.0269533498658 24.12549665764802
495 2 8.567167772161556 9.768990706188497 22.21391358914585
496 1 8.299443779281512 27.43674590778771 22.21391358914585
497 2 8.567167772161557 12.17878326411041 20.30233052064369
498 4 8.299443779281512 29.84653846570962 20.30233052064369
499 1 8.567167772161557 14.58857582203232 18.39074745214153
500 5 8.299443779281514 32.25633102363155 18.39074745214152
501 4 8.299443779281505 34.66612358155346 16.47916438363935
502 2 8.567167772161557 16.99836837995424 16.47916438363936
503 1 8.834891765041604 1.740405736276937 14.56758131513719
504 4 8.567167772161557 19.40816093787615 14.56758131513719
505 5 8.834891765041604 4.150198294198851 12.65599824663503
506 2 8.567167772161559 21.81795349579807 12.65599824663503
507 5 8.834891765041604 6.559990852120763 10.74441517813286
508 2 8.567167772161561 24.22774605371998 10.74441517813286
509 4 8.834891765041606 8.969783410042679 8.832832109630694
510 3 8.567167772161559 26.6375386116419 8.832832109630695
511 1 8.834891765041606 11.37957596796459 6.921249041128529
512 3 8.567167772161561 29.04733116956381 6.921249041128531
513 1 8.834891765041606 13.78936852588651 5.009665972626363
514 3 8.567167772161561 31.45712372748572 5.009665972626365
515 2 8.834891765041606 16.19916108380842 3.098082904124198
516 5 8.567167772161559 33.86691628540764 3.0980829041242
517 5 9.102615757921651 0.9411984401311178 1.186499835622033
518 3 8.834891765041606 18.60895364173033 1.186499835622033
519 4 9.102615757921651 2.012217354763076 32.23324553439858
520 4 8.834891765041608 19.67997255636229 32.23324553439858
521 3 9.102615757921653 4.422009912684991 30.32166246589642
522 1 8.834891765041608 22.08976511428421 30.32166246589642
523 1 9.102615757921653 6.831802470606905 28.41007939739425
524 2 8.834891765041609 24.49955767220612 28.41007939739425
525 3 9.102615757921654 9.241595028528819 26.49849632889208
526 3 8.834891765041611 26.90935023012803 26.49849632889208
527 4 9.102615757921653 11.65138758645073 24.58691326038992
528 5 8.834891765041611 29.31914278804995 24.58691326038992
529 1 9.102615757921656 14.06118014437265 22.67533019188775
530 5 8.834891765041611 31.72893534597187 22.67533019188775
531 2 9.102615757921656 16.47097270229456 20.76374712338559
532 4 8.834891765041611 34.13872790389378 20.76374712338559
533 4 9.370339750801699 1.213010058617258 18.85216405488342
534 3 9.102615757921656 18.88076526021647 18.85216405488342
535 5 9.370339750801703 3.622802616539172 16.94058098638126
536 2 9.102615757921656 21.29055781813839 16.94058098638126
537 5 9.370339750801703 6.032595174461086 15.02899791787909
538 1 9.102615757921658 23.7003503760603 15.02899791787909
539 1 9.370339750801703 8.442387732382999 13.11741484937693
540 1 9.10261575792166 26.11014293398222 13.11741484937693
541 5 9.370339750801705 10.85218029030491 11.20583178087476
542 3 9.102615757921658 28.51993549190414 11.20583178087476
543 5 9.370339750801705 13.26197284822683 9.294248712372596
544 2 9.10261575792166 30.92972804982605 9.294248712372596
545 5 9.370339750801705 15.67176540614874 7.382665643870431
546 1 9.10261575792166 33.33952060774796 7.382665643870431
547 4 9.63806374368175 0.4138027624714392 5.471082575368266
548 5 9.370339750801705 18.08155796407066 5.471082575368266
549 5 9.63806374368175 2.823595320393353 3.559499506866101
550 3 9.370339750801705 20.49135052199257 3.559499506866101
551 5 9.63806374368175 5.233387878315267 1.647916438363935
552 4 9.370339750801705 22.90114307991449 1.647916438363936
553 2 9.638063743681752 6.304406792947229 32.69466213714048
554 1 9.370339750801707 23.97216199454644 32.69466213714048
555 2 9.638063743681752 8.714199350869144 30.78307906863832
556 2 9.370339750801707 26.38195455246836 30.78307906863832
557 2 9.638063743681753 11.12399190879106 28.87149600013615
558 4 9.370339750801708 28.79174711039028 28.87149600013615
559 3 9.638063743681752 13.53378446671297 26.95991293163398
560 5 9.370339750801708 31.20153966831219 26.95991293163399
561 2 9.638063743681753 15.94357702463488 25.04832986313182
562 5 9.370339750801708 33.6113322262341 25.04832986313182
563 2 9.905787736561798 0.6856143809575795 23.13674679462965
564 5 9.638063743681753 18.3533695825568 23.13674679462965
565 3 9.905787736561798 3.095406938879493 21.22516372612749
566 1 9.638063743681753 20.76316214047871 21.22516372612749
567 5 9.9057877365618 5.505199496801407 19.31358065762533
568 5 9.638063743681752 23.17295469840063 19.31358065762532
569 5 9.9057877365618 7.914992054723321 17.40199758912316
570 4 9.638063743681755 25.58274725632254 17.40199758912316
571 3 9.9057877365618 10.32478461264523 15.49041452062099
572 5 9.638063743681757 27.99253981424446 15.49041452062099
573 2 9.905787736561802 12.73457717056715 13.57883145211883
574 1 9.638063743681753 30.40233237216637 13.57883145211883
575 4 9.905787736561802 15.14436972848906 11.66724838361666
576 5 9.638063743681757 32.81212493008828 11.66724838361666
577 4 10.17351172944185 -0.1135929151882393 9.755665315114499
578 1 9.9057877365618 17.55416228641098 9.755665315114499
579 2 10.17351172944185 2.296199642733674 7.844082246612333
580 4 9.9057877365618 19.9639548443329 7.844082246612333
581 4 10.17351172944185 4.705992200655589 5.932499178110168
582 1 9.905787736561802 22.37374740225481 5.932499178110168
583 2 10.17351172944185 7.115784758577503 4.020916109608003
584 5 9.905787736561802 24.78353996017672 4.020916109608003
585 1 10.17351172944185 9.525577316499417 2.109333041105837
586 3 9.905787736561805 27.19333251809864 2.109333041105838
587 5 10.17351172944185 11.93536987442133 0.1977499726036721
588 3 9.905787736561802 29.60312507602055 0.1977499726036727
589 3 10.17351172944185 13.00638878905329 31.24449567138022
590 3 9.905787736561804 30.67414399065251 31.24449567138022
591 5 10.17351172944185 15.4161813469752 29.33291260287805
592 3 9.905787736561804 33.08393654857443 29.33291260287806
593 4 10.4412357223219 0.158218703297901 27.42132953437589
594 4 10.17351172944185 17.82597390489711 27.42132953437589
595 1 10.4412357223219 2.568011261219815 25.50974646587372
596 1 10.17351172944185 20.23576646281903 25.50974646587373
597 4 10.4412357223219 4.97780381914173 23.59816339737156
598 5 10.17351172944185 22.64555902074094 23.59816339737156
599 2 10.4412357223219 7.387596377063642 21.68658032886939
600 4 10.17351172944185 25.05535157866286 21.68658032886939
601 3 10.4412357223219 9.797388934985557 19.77499726036723
602 4 10.17351172944185 27.46514413658477 19.77499726036723
603 1 10.4412357223219 12.20718149290747 17.86341419186506
604 5 10.17351172944185 29.87493669450669 17.86341419186506
605 2 10.4412357223219 14.61697405082938 15.9518311233629
606 5 10.17351172944185 32.2847292524286 15.9518311233629
607 1 10.4412357223219 17.0267666087513 14.04024805486073
608 5 10.17351172944185 34.69452181035052 14.04024805486073
609 2 10.70895971520194 1.768803965073996 12.12866498635857
610 4 10.4412357223219 19.43655916667321 12.12866498635857
611 1 10.70895971520194 4.17859652299591 10.2170819178564
612 5 10.4412357223219 21.84635172459513 10.2170819178564
613 2 10.70895971520194 6.588389080917824 8.305498849354237
614 4 10.4412357223219 24.25614428251704 8.305498849354235
615 3 10.70895971520194 8.998181638839739 6.39391578085207
616 1 10.4412357223219 26.66593684043896 6.393915780852069
617 4 10.70895971520195 11.40797419676165 4.482332712349905
618 4 10.4412357223219 29.07572939836087 4.482332712349904
619 5 10.70895971520195 13.81776675468357 2.570749643847739
620 5 10.4412357223219 31.48552195628278 2.570749643847738
621 2 10.70895971520195 16.22755931260548 0.6591665753455742
622 3 10.4412357223219 33.89531451420469 0.6591665753455733
623 2 10.97668370808199 -0.3691769743617787 31.70591227412212
624 2 10.70895971520195 17.29857822723744 31.70591227412212
625 5 10.97668370808199 2.040615583560137 29.79432920561996
626 4 10.70895971520195 19.70837078515935 29.79432920561996
627 4 10.97668370808199 4.45040814148205 27.88274613711779
628 1 10.70895971520195 22.11816334308127 27.88274613711779
629 3 10.97668370808199 6.860200699403965 25.97116306861563
630 1 10.70895971520195 24.52795590100318 25.97116306861562
631 4 10.97668370808199 9.269993257325879 24.05958000011346
632 2 10.70895971520195 26.9377484589251 24.05958000011346
633 3 10.97668370808199 11.67978581524779 22.1479969316113
634 4 10.70895971520195 29.34754101684701 22.1479969316113
635 1 10.97668370808199 14.08957837316971 20.23641386310913
636 1 10.70895971520195 31.75733357476892 20.23641386310913
637 3 10.97668370808199 16.49937093109162 18.32483079460697
638 5 10.70895971520195 34.16712613269083 18.32483079460696
639 4 11.24440770096204 1.241408287414318 16.4132477261048
640 5 10.97668370808199 18.90916348901353 16.4132477261048
641 1 11.24440770096204 3.651200845336231 14.50166465760263
642 3 10.976683708082 21.31895604693545 14.50166465760264
643 2 11.24440770096204 6.060993403258146 12.59008158910047
644 3 10.976683708082 23.72874860485736 12.59008158910047
645 5 11.24440770096204 8.470785961180059 10.6784985205983
646 5 10.976683708082 26.13854116277928 10.6784985205983
647 2 11.24440770096204 10.88057851910197 8.766915452096137
648 3 10.976683708082 28.54833372070119 8.766915452096139
649 5 11.24440770096204 13.29037107702389 6.855332383593971
650 2 10.976683708082 30.9581262786231 6.855332383593973
651 4 11.24440770096204 15.7001636349458 4.943749315091806
652 3 10.976683708082 33.36791883654502 4.943749315091808
653 1 11.51213169384209 0.4422009912684993 3.032166246589641
654 5 11.24440770096204 18.10995619286772 3.032166246589641
655 5 11.51213169384209 2.851993549190413 1.120583178087476
656 2 11.24440770096204 20.51974875078963 1.120583178087476
657 4 11.51213169384209 3.923012463822372 32.16732887686403
658 3 11.24440770096205 21.59076766542159 32.16732887686402
659 5 11.51213169384209 6.332805021744286 30.25574580836186
660 2 11.24440770096205 24.00056022334351 30.25574580836186
661 3 11.51213169384209 8.742597579666201 28.34416273985969
662 5 11.24440770096205 26.41035278126542 28.34416273985969
663 5 11.51213169384209 11.15239013758811 26.43257967135753
664 4 11.24440770096205 28.82014533918733 26.43257967135752
665 3 11.51213169384209 13.56218269551003 24.52099660285536
666 4 11.24440770096205 31.22993789710925 24.52099660285536
667 5 11.51213169384209 15.97197525343194 22.6094135343532
668 4 11.24440770096205 33.63973045503116 22.6094135343532
669 4 11.77985568672214 0.7140126097546395 20.69783046585103
670 2 11.51213169384209 18.38176781135386 20.69783046585103
671 1 11.77985568672214 3.123805167676553 18.78624739734887
672 5 11.51213169384209 20.79156036927577 18.78624739734887
673 3 11.77985568672214 5.533597725598467 16.8746643288467
674 2 11.5121316938421 23.20135292719769 16.8746643288467
675 4 11.77985568672214 7.943390283520382 14.96308126034454
676 3 11.5121316938421 25.6111454851196 14.96308126034454
677 3 11.77985568672214 10.35318284144229 13.05149819184237
678 5 11.5121316938421 28.02093804304151 13.05149819184237
679 1 11.77985568672214 12.76297539936421 11.1399151233402
680 4 11.5121316938421 30.43073060096343 11.1399151233402
681 3 11.77985568672214 15.17276795728612 9.22833205483804
682 5 11.5121316938421 32.84052315888534 9.22833205483804
683 2 12.04757967960219 -0.0851946863911795 7.316748986335874
684 3 11.77985568672214 17.58256051520804 7.316748986335874
685 4 12.04757967960219 2.324597871530734 5.405165917833709
686 5 11.77985568672214 19.99235307312996 5.405165917833709
687 5 12.04757967960219 4.734390429452649 3.493582849331543
688 3 11.77985568672214 22.40214563105187 3.493582849331543
689 5 12.04757967960219 7.144182987374562 1.581999780829378
690 2 11.77985568672215 24.81193818897378 1.581999780829378
691 4 12.04757967960219 8.215201902006523 32.62874547960593
692 2 11.77985568672215 25.88295710360574 32.62874547960593
693 4 12.04757967960219 10.62499445992844 30.71716241110376
694 2 11.77985568672215 28.29274966152765 30.71716241110376
695 4 12.04757967960219 13.03478701785035 28.80557934260159
696 2 11.77985568672215 30.70254221944957 28.80557934260159
697 2 12.04757967960219 15.44457957577226 26.89399627409943
698 5 11.77985568672215 33.11233477737148 26.89399627409943
699 1 12.31530367248224 0.1866169320949604 24.98241320559726
700 3 12.04757967960219 17.85437213369418 24.98241320559726
701 4 12.31530367248223 2.596409490016875 23.0708301370951
702 5 12.04757967960219 20.26416469161609 23.0708301370951
703 2 12.31530367248224 5.006202047938788 21.15924706859293
704 4 12.04757967960219 22.67395724953801 21.15924706859293
705 2 12.31530367248224 7.415994605860702 19.24766400009077
706 5 12.04757967960219 25.08374980745992 19.24766400009077
707 1 12.31530367248224 9.825787163782618 17.3360809315886
708 1 12.04757967960219 27.49354236538183 17.3360809315886
709 3 12.31530367248224 12.23557972170453 15.42449786308644
710 1 12.04757967960219 29.90333492330375 15.42449786308644
711 3 12.31530367248224 14.64537227962644 13.51291479458427
712 5 12.04757967960219 32.31312748122566 13.51291479458427
713 4 12.31530367248224 17.05516483754836 11.60133172608211
714 1 12.0475796796022 34.72292003914757 11.6013317260821
715 3 12.58302766536229 1.797202193871056 9.689748657579942
716 5 12.31530367248224 19.46495739547028 9.689748657579942
717 2 12.58302766536229 4.20699475179297 7.778165589077776
718 3 12.31530367248224 21.87474995339219 7.778165589077776
719 1 12.58302766536229 6.616787309714885 5.866582520575611
720 1 12.31530367248224 24.2845425113141 5.866582520575611
721 5 12.58302766536229 9.0265798676368 3.954999452073446
722 4 12.31530367248224 26.69433506923601 3.954999452073446
723 1 12.58302766536229 11.43637242555871 2.04341638357128
724 5 12.31530367248224 29.10412762715793 2.043416383571281
725 1 12.58302766536229 13.84616498348063 0.1318333150691147
726 4 12.31530367248224 31.51392018507984 0.1318333150691152
727 4 12.58302766536229 14.91718389811258 31.17857901384566
728 2 12.31530367248224 32.5849390997118 31.17857901384566
729 1 12.85075165824233 -0.340778745564718 29.2669959453435
730 2 12.58302766536229 17.3269764560345 29.2669959453435
731 4 12.85075165824234 2.069013812357196 27.35541287684133
732 4 12.58302766536229 19.73676901395642 27.35541287684133
733 4 12.85075165824233 4.478806370279111 25.44382980833916
734 2 12.58302766536229 22.14656157187833 25.44382980833917
735 1 12.85075165824233 6.888598928201025 23.532246739837
736 2 12.58302766536229 24.55635412980024 23.532246739837
737 5 12.85075165824233 9.298391486122938 21.62066367133484
738 5 12.58302766536229 26.96614668772215 21.62066367133484
739 1 12.85075165824234 11.70818404404485 19.70908060283267
740 4 12.58302766536229 29.37593924564407 19.70908060283267
741 1 12.85075165824234 14.11797660196676 17.7974975343305
742 4 12.58302766536229 31.78573180356598 17.79749753433051
743 1 12.85075165824233 16.52776915988868 15.88591446582834
744 2 12.58302766536229 34.1955243614879 15.88591446582834
745 5 13.11847565112238 1.269806516211377 13.97433139732617
746 2 12.85075165824233 18.93756171781059 13.97433139732617
747 3 13.11847565112238 3.679599074133291 12.06274832882401
748 3 12.85075165824234 21.34735427573251 12.06274832882401
749 3 13.11847565112238 6.089391632055206 10.15116526032184
750 3 12.85075165824233 23.75714683365442 10.15116526032184
751 4 13.11847565112238 8.49918418997712 8.239582191819679
752 5 12.85075165824234 26.16693939157634 8.239582191819677
753 3 13.11847565112238 10.90897674789903 6.327999123317513
754 3 12.85075165824234 28.57673194949825 6.327999123317512
755 5 13.11847565112238 13.31876930582095 4.416416054815347
756 4 12.85075165824234 30.98652450742016 4.416416054815346
757 4 13.11847565112238 15.72856186374286 2.504832986313182
758 3 12.85075165824234 33.39631706534208 2.504832986313181
759 3 13.38619964400243 0.4705992200655594 0.5932499178110165
760 4 13.11847565112238 18.13835442166478 0.5932499178110167
761 2 13.38619964400243 1.541618134697518 31.63999561658757
762 3 13.11847565112238 19.20937333629673 31.63999561658757
763 1 13.38619964400243 3.951410692619432 29.7284125480854
764 5 13.11847565112239 21.61916589421865 29.7284125480854
765 5 13.38619964400243 6.361203250541347 27.81682947958323
766 2 13.11847565112238 24.02895845214056 27.81682947958323
767 5 13.38619964400243 8.77099580846326 25.90524641108107
768 2 13.11847565112238 26.43875101006248 25.90524641108107
769 4 13.38619964400243 11.18078836638517 23.99366334257891
770 5 13.11847565112239 28.84854356798439 23.99366334257891
771 1 13.38619964400243 13.59058092430709 22.08208027407674
772 5 13.11847565112239 31.25833612590631 22.08208027407674
773 4 13.38619964400243 16.000373482229 20.17049720557457
774 2 13.11847565112239 33.66812868382822 20.17049720557457
775 1 13.65392363688248 0.7424108385516989 18.25891413707241
776 3 13.38619964400243 18.41016604015092 18.25891413707241
777 4 13.65392363688248 3.152203396473613 16.34733106857024
778 1 13.38619964400243 20.81995859807283 16.34733106857024
779 3 13.65392363688248 5.561995954395527 14.43574800006808
780 1 13.38619964400243 23.22975115599474 14.43574800006808
781 5 13.65392363688248 7.971788512317441 12.52416493156591
782 1 13.38619964400243 25.63954371391666 12.52416493156591
783 5 13.65392363688248 10.38158107023935 10.61258186306375
784 1 13.38619964400243 28.04933627183858 10.61258186306375
785 5 13.65392363688248 12.79137362816127 8.700998794561579
786 3 13.38619964400243 30.45912882976048 8.700998794561581
787 3 13.65392363688248 15.20116618608319 6.789415726059414
788 2 13.38619964400243 32.8689213876824 6.789415726059416
789 1 13.92164762976253 -0.05679645759411964 4.877832657557248
790 5 13.65392363688248 17.6109587440051 4.877832657557248
791 3 13.92164762976253 2.352996100327795 2.966249589055084
792 2 13.65392363688248 20.02075130192701 2.966249589055083
793 3 13.92164762976253 4.762788658249709 1.054666520552918
794 2 13.65392363688248 22.43054385984892 1.054666520552918
795 1 13.92164762976253 5.833807572881667 32.10141221932947
796 5 13.65392363688248 23.50156277448088 32.10141221932946
797 1 13.92164762976253 8.243600130803582 30.1898291508273
798 2 13.65392363688248 25.9113553324028 30.1898291508273
799 4 13.92164762976253 10.6533926887255 28.27824608232513
800 5 13.65392363688248 28.32114789032471 28.27824608232513
801 2 13.92164762976253 13.06318524664741 26.36666301382297
802 1 13.65392363688249 30.73094044824662 26.36666301382296
803 3 13.92164762976253 15.47297780456932 24.45507994532081
804 5 13.65392363688249 33.14073300616855 24.4550799453208
805 5 14.18937162264258 0.2150151608920207 22.54349687681864
806 1 13.92164762976253 17.88277036249124 22.54349687681864
807 1 14.18937162264257 2.624807718813935 20.63191380831647
808 1 13.92164762976253 20.29256292041315 20.63191380831647
809 4 14.18937162264258 5.034600276735849 18.72033073981431
810 2 13.92164762976253 22.70235547833506 18.72033073981431
811 3 14.18937162264258 7.444392834657762 16.80874767131214
812 3 13.92164762976253 25.11214803625698 16.80874767131214
813 4 14.18937162264258 9.854185392579678 14.89716460280998
814 3 13.92164762976253 27.52194059417889 14.89716460280998
815 4 14.18937162264258 12.26397795050159 12.98558153430781
816 5 13.92164762976253 29.93173315210081 12.98558153430781
817 3 14.18937162264258 14.6737705084235 11.07399846580565
818 2 13.92164762976253 32.34152571002272 11.07399846580565
819 5 14.18937162264258 17.08356306634542 9.162415397303482
820 1 13.92164762976253 34.75131826794464 9.162415397303482
821 4 14.45709561552263 1.825600422668116 7.250832328801317
822 1 14.18937162264258 19.49335562426734 7.250832328801317
823 2 14.45709561552263 4.235392980590031 5.339249260299151
824 4 14.18937162264258 21.90314818218925 5.339249260299151
825 4 14.45709561552263 6.645185538511944 3.427666191796986
826 5 14.18937162264258 24.31294074011116 3.427666191796986
827 1 14.45709561552263 9.054978096433858 1.51608312329482
828 1 14.18937162264258 26.72273329803308 1.516083123294821
829 3 14.45709561552263 10.12599701106582 32.56282882207137
830 3 14.18937162264258 27.79375221266503 32.56282882207137
831 1 14.45709561552263 12.53578956898773 30.6512457535692
832 1 14.18937162264258 30.20354477058695 30.6512457535692
833 5 14.45709561552263 14.94558212690965 28.73966268506704
834 4 14.18937162264258 32.61333732850886 28.73966268506704
835 1 14.72481960840267 -0.3123805167676584 26.82807961656487
836 2 14.45709561552263 17.35537468483156 26.82807961656487
837 2 14.72481960840267 2.097412041154256 24.91649654806271
838 4 14.45709561552263 19.76516724275347 24.91649654806271
839 4 14.72481960840267 4.507204599076171 23.00491347956054
840 2 14.45709561552263 22.17495980067539 23.00491347956054
841 1 14.72481960840267 6.916997156998083 21.09333041105837
842 4 14.45709561552263 24.5847523585973 21.09333041105837
843 1 14.72481960840268 9.326789714919999 19.18174734255621
844 3 14.45709561552263 26.99454491651922 19.18174734255621
845 1 14.72481960840267 11.73658227284191 17.27016427405405
846 5 14.45709561552263 29.40433747444113 17.27016427405404
847 1 14.72481960840267 14.14637483076382 15.35858120555188
848 1 14.45709561552263 31.81413003236305 15.35858120555188
849 1 14.72481960840268 16.55616738868574 13.44699813704971
850 4 14.45709561552263 34.22392259028496 13.44699813704971
851 1 14.99254360128272 1.298204745008437 11.53541506854755
852 1 14.72481960840268 18.96595994660766 11.53541506854755
853 3 14.99254360128272 3.707997302930351 9.623832000045384
854 2 14.72481960840268 21.37575250452957 9.623832000045384
855 2 14.99254360128272 6.117789860852266 7.712248931543219
856 5 14.72481960840268 23.78554506245148 7.712248931543219
857 4 14.99254360128272 8.527582418774179 5.800665863041053
858 3 14.72481960840268 26.1953376203734 5.800665863041053
859 4 14.99254360128272 10.93737497669609 3.889082794538888
860 1 14.72481960840268 28.60513017829531 3.889082794538888
861 2 14.99254360128272 13.34716753461801 1.977499726036723
862 4 14.72481960840268 31.01492273621722 1.977499726036723
863 2 14.99254360128272 15.75696009253992 0.06591665753455726
864 1 14.72481960840268 33.42471529413913 0.06591665753455783
865 2 15.26026759416277 -0.8397761944273371 31.11266235631111
866 5 14.99254360128273 16.82797900717188 31.11266235631111
867 3 15.26026759416277 1.570016363494577 29.20107928780894
868 1 14.99254360128273 19.2377715650938 29.20107928780894
869 1 15.26026759416277 3.979808921416493 27.28949621930677
870 2 14.99254360128273 21.64756412301571 27.28949621930677
871 3 15.26026759416277 6.389601479338406 25.37791315080461
872 5 14.99254360128273 24.05735668093762 25.37791315080461
873 5 15.26026759416277 8.799394037260319 23.46633008230244
874 3 14.99254360128273 26.46714923885954 23.46633008230244
875 2 15.26026759416277 11.20918659518223 21.55474701380028
876 1 14.99254360128273 28.87694179678145 21.55474701380028
877 5 15.26026759416277 13.61897915310415 19.64316394529811
878 2 14.99254360128273 31.28673435470336 19.64316394529811
879 3 15.26026759416277 16.02877171102606 17.73158087679595
880 1 14.99254360128273 33.69652691262527 17.73158087679595
881 2 15.52799158704282 0.7708090673487588 15.81999780829378
882 2 15.26026759416277 18.43856426894797 15.81999780829378
883 3 15.52799158704282 3.180601625270673 13.90841473979162
884 4 15.26026759416277 20.84835682686989 13.90841473979162
885 2 15.52799158704282 5.590394183192587 11.99683167128945
886 3 15.26026759416277 23.2581493847918 11.99683167128945
887 2 15.52799158704282 8.000186741114502 10.08524860278728
888 3 15.26026759416277 25.66794194271372 10.08524860278728
889 4 15.52799158704282 10.40997929903642 8.173665534285121
890 1 15.26026759416278 28.07773450063564 8.173665534285119
891 5 15.52799158704282 12.81977185695833 6.262082465782955
892 3 15.26026759416277 30.48752705855755 6.262082465782954
893 5 15.52799158704282 15.22956441488024 4.35049939728079
894 3 15.26026759416278 32.89731961647946 4.350499397280789
895 2 15.79571557992287 -0.02839822879705957 2.438916328778624
896 3 15.52799158704282 17.63935697280216 2.438916328778624
897 1 15.79571557992287 2.381394329124854 0.5273332602764591
898 1 15.52799158704282 20.04914953072407 0.5273332602764592
899 1 15.79571557992287 3.452413243756812 31.57407895905301
900 2 15.52799158704282 21.12016844535603 31.57407895905301
901 3 15.79571557992287 5.862205801678728 29.66249589055084
902 3 15.52799158704283 23.52996100327794 29.66249589055084
903 2 15.79571557992287 8.271998359600643 27.75091282204868
904 4 15.52799158704282 25.93975356119985 27.75091282204867
905 1 15.79571557992287 10.68179091752256 25.83932975354652
906 5 15.52799158704283 28.34954611912177 25.83932975354651
907 3 15.79571557992287 13.09158347544447 23.92774668504435
908 1 15.52799158704282 30.75933867704368 23.92774668504435
909 4 15.79571557992287 15.50137603336638 22.01616361654218
910 3 15.52799158704282 33.1691312349656 22.01616361654218
911 3 16.06343957280292 0.2434133896890806 20.10458054804001
912 2 15.79571557992287 17.91116859128829 20.10458054804002
913 4 16.06343957280292 2.653205947610994 18.19299747953785
914 1 15.79571557992287 20.32096114921021 18.19299747953785
915 5 16.06343957280292 5.062998505532907 16.28141441103568
916 4 15.79571557992287 22.73075370713212 16.28141441103568
917 1 16.06343957280292 7.472791063454823 14.36983134253352
918 1 15.79571557992287 25.14054626505404 14.36983134253352
919 4 16.06343957280292 9.882583621376737 12.45824827403135
920 2 15.79571557992287 27.55033882297595 12.45824827403136
921 1 16.06343957280292 12.29237617929865 10.54666520552919
922 5 15.79571557992287 29.96013138089787 10.54666520552919
923 4 16.06343957280292 14.70216873722056 8.635082137027021
924 3 15.79571557992287 32.36992393881978 8.635082137027023
925 3 16.06343957280292 17.11196129514248 6.723499068524856
926 4 15.79571557992288 34.77971649674169 6.723499068524858
927 2 16.33116356568296 1.853998651465176 4.811916000022691
928 1 16.06343957280292 19.5217538530644 4.811916000022691
929 1 16.33116356568296 4.263791209387089 2.900332931520526
930 3 16.06343957280292 21.93154641098631 2.900332931520526
931 2 16.33116356568297 6.673583767309004 0.9887498630183611
932 1 16.06343957280292 24.34133896890822 0.9887498630183608
933 4 16.33116356568296 7.744602681940963 32.03549556179491
934 2 16.06343957280292 25.41235788354018 32.0354955617949
935 4 16.33116356568297 10.15439523986288 30.12391249329274
936 2 16.06343957280292 27.82215044146209 30.12391249329274
937 3 16.33116356568297 12.56418779778479 28.21232942479057
938 3 16.06343957280292 30.23194299938401 28.21232942479057
939 1 16.33116356568297 14.9739803557067 26.30074635628841
940 2 16.06343957280292 32.64173555730592 26.30074635628841
941 1 16.59888755856301 -0.2839822879705983 24.38916328778625
942 2 16.33116356568297 17.38377291362862 24.38916328778625
943 3 16.59888755856301 2.125810269951316 22.47758021928408
944 5 16.33116356568297 19.79356547155053 22.47758021928408
945 1 16.59888755856301 4.53560282787323 20.56599715078191
946 1 16.33116356568297 22.20335802947244 20.56599715078191
947 5 16.59888755856301 6.945395385795144 18.65441408227975
948 5 16.33116356568297 24.61315058739436 18.65441408227975
949 1 16.59888755856302 9.355187943717057 16.74283101377759
950 4 16.33116356568297 27.02294314531628 16.74283101377759
951 5 16.59888755856301 11.76498050163897 14.83124794527542
952 3 16.33116356568297 29.43273570323819 14.83124794527542
953 1 16.59888755856302 14.17477305956088 12.91966487677326
954 4 16.33116356568297 31.8425282611601 12.91966487677326
955 4 16.59888755856302 16.5845656174828 11.00808180827109
956 2 16.33116356568297 34.25232081908202 11.00808180827109
957 2 16.86661155144306 1.326602973805497 9.096498739768924
958 4 16.59888755856302 18.99435817540472 9.096498739768924
959 2 16.86661155144306 3.736395531727411 7.184915671266759
960 3 16.59888755856302 21.40415073332663 7.184915671266759
961 4 16.86661155144306 6.146188089649326 5.273332602764594
962 5 16.59888755856302 23.81394329124854 5.273332602764594
963 3 16.86661155144306 8.555980647571241 3.361749534262428
964 3 16.59888755856302 26.22373584917046 3.361749534262428
965 3 16.86661155144306 10.96577320549315 1.450166465760263
966 2 16.59888755856302 28.63352840709237 1.450166465760263
967 1 16.86661155144306 12.03679212012511 32.49691216453681
968 4 16.59888755856302 29.70454732172433 32.49691216453682
969 1 16.86661155144306 14.44658467804703 30.58532909603464
970 3 16.59888755856302 32.11433987964624 30.58532909603464
971 5 17.13433554432311 -0.8113779656302773 28.67374602753248
972 5 16.86661155144307 16.85637723596894 28.67374602753248
973 5 17.13433554432311 1.598414592291637 26.76216295903032
974 1 16.86661155144307 19.26616979389086 26.76216295903031
975 1 17.13433554432311 4.008207150213551 24.85057989052815
976 3 16.86661155144307 21.67596235181277 24.85057989052815
977 5 17.13433554432311 6.417999708135466 22.93899682202598
978 1 16.86661155144307 24.08575490973468 22.93899682202598
979 1 17.13433554432311 8.827792266057381 21.02741375352382
980 1 16.86661155144307 26.4955474676566 21.02741375352382
981 5 17.13433554432311 11.23758482397929 19.11583068502165
982 5 16.86661155144306 28.90534002557851 19.11583068502165
983 3 17.13433554432311 13.64737738190121 17.20424761651949
984 3 16.86661155144306 31.31513258350043 17.20424761651948
985 2 17.13433554432311 16.05716993982312 15.29266454801732
986 4 16.86661155144307 33.72492514142234 15.29266454801732
987 2 17.40205953720316 0.7992072961458185 13.38108147951516
988 4 17.13433554432311 18.46696249774504 13.38108147951516
989 2 17.40205953720316 3.208999854067733 11.46949841101299
990 5 17.13433554432311 20.87675505566695 11.46949841101299
991 3 17.40205953720316 5.618792411989647 9.557915342510826
992 5 17.13433554432311 23.28654761358886 9.557915342510826
993 3 17.40205953720316 8.028584969911561 7.646332274008661
994 3 17.13433554432311 25.69634017151078 7.646332274008661
995 4 17.40205953720316 10.43837752783348 5.734749205506496
996 2 17.13433554432311 28.10613272943269 5.734749205506496
997 5 17.40205953720316 12.84817008575539 3.823166137004331
998 4 17.13433554432312 30.51592528735461 3.823166137004331
999 4 17.40205953720316 15.2579626436773 1.911583068502165
1000 4 17.13433554432312 32.92571784527652 1.911583068502166
1001 2 17.66978353008321 -4.644804136068163e-18 1.143471732831203e-16
1002 1 17.40205953720316 16.32898155830926 32.95832876727872
1003 1 17.66978353008321 1.071018914631958 31.04674569877655
1004 3 17.40205953720316 18.73877411623117 31.04674569877655
1005 5 17.66978353008321 3.480811472553873 29.13516263027438
1006 3 17.40205953720316 21.14856667415309 29.13516263027438
1007 2 17.66978353008321 5.890604030475787 27.22357956177221
1008 3 17.40205953720316 23.558359232075 27.22357956177222
1009 1 17.66978353008321 8.300396588397701 25.31199649327005
1010 5 17.40205953720316 25.96815178999691 25.31199649327005
1011 3 17.66978353008321 10.71018914631962 23.40041342476789
1012 4 17.40205953720317 28.37794434791883 23.40041342476789
1013 1 17.66978353008321 13.11998170424153 21.48883035626572
1014 3 17.40205953720316 30.78773690584075 21.48883035626572
1015 2 17.66978353008321 15.52977426216344 19.57724728776355
1016 5 17.40205953720317 33.19752946376266 19.57724728776356
1017 4 17.93750752296326 0.2718116184861403 17.66566421926139
1018 1 17.66978353008321 17.93956682008536 17.66566421926139
1019 3 17.93750752296326 2.681604176408054 15.75408115075922
1020 2 17.66978353008321 20.34935937800727 15.75408115075922
1021 4 17.93750752296326 5.091396734329968 13.84249808225706
1022 3 17.66978353008321 22.75915193592919 13.84249808225706
1023 1 17.93750752296326 7.501189292251882 11.93091501375489
1024 2 17.66978353008321 25.1689444938511 11.93091501375489
1025 4 17.93750752296326 9.910981850173796 10.01933194525273
1026 2 17.66978353008321 27.57873705177302 10.01933194525273
1027 2 17.93750752296326 12.32077440809571 8.107748876750565
1028 4 17.66978353008321 29.98852960969493 8.107748876750563
1029 4 17.93750752296326 14.73056696601762 6.196165808248398
1030 4 17.66978353008321 32.39832216761684 6.196165808248397
1031 2 17.93750752296326 17.14035952393954 4.284582739746233
1032 1 17.66978353008322 34.80811472553876 4.284582739746232
1033 4 18.2052315158433 1.882396880262236 2.372999671244067
1034 2 17.93750752296326 19.55015208186146 2.372999671244067
1035 2 18.20523151584331 4.292189438184151 0.4614166027419016
1036 3 17.93750752296326 21.95994463978337 0.4614166027419017
1037 5 18.20523151584331 5.363208352816108 31.50816230151845
1038 1 17.93750752296326 23.03096355441532 31.50816230151845
1039 1 18.20523151584331 7.773000910738022 29.59657923301628
1040 5 17.93750752296326 25.44075611233724 29.59657923301628
1041 1 18.20523151584331 10.18279346865994 27.68499616451412
1042 4 17.93750752296326 27.85054867025915 27.68499616451411
1043 1 18.20523151584331 12.59258602658185 25.77341309601196
1044 2 17.93750752296326 30.26034122818107 25.77341309601195
1045 2 18.20523151584331 15.00237858450376 23.86183002750979
1046 1 17.93750752296326 32.67013378610299 23.86183002750979
1047 3 18.47295550872335 -0.2555840591735385 21.95024695900762
1048 1 18.20523151584331 17.41217114242568 21.95024695900762
1049 3 18.47295550872335 2.154208498748376 20.03866389050545
1050 4 18.20523151584331 19.82196370034759 20.03866389050546
1051 3 18.47295550872335 4.56400105667029 18.12708082200329
1052 3 18.20523151584331 22.2317562582695 18.12708082200329
1053 3 18.47295550872335 6.973793614592203 16.21549775350113
1054 1 18.20523151584331 24.64154881619142 16.21549775350113
1055 2 18.47295550872335 9.383586172514118 14.30391468499896
1056 2 18.20523151584331 27.05134137411333 14.30391468499896
1057 3 18.47295550872335 11.79337873043603 12.3923316164968
1058 4 18.20523151584331 29.46113393203525 12.3923316164968
1059 1 18.47295550872335 14.20317128835795 10.48074854799463
1060 2 18.20523151584331 31.87092648995716 10.48074854799463
1061 1 18.47295550872335 16.61296384627986 8.569165479492465
1062 4 18.20523151584331 34.28071904787908 8.569165479492467
1063 3 18.7406795016034 1.355001202602557 6.657582410990299
1064 3 18.47295550872335 19.02275640420178 6.657582410990299
1065 3 18.7406795016034 3.764793760524471 4.745999342488133
1066 4 18.47295550872336 21.43254896212369 4.745999342488133
1067 2 18.74067950160341 6.174586318446385 2.834416273985969
1068 4 18.47295550872336 23.8423415200456 2.834416273985968
1069 4 18.7406795016034 8.5843788763683 0.9228332054838037
1070 1 18.47295550872336 26.25213407796751 0.9228332054838032
1071 3 18.74067950160341 9.655397791000258 31.96957890426035
1072 2 18.47295550872336 27.32315299259947 31.96957890426035
1073 2 18.74067950160341 12.06519034892217 30.05799583575818
1074 2 18.47295550872336 29.73294555052139 30.05799583575818
1075 4 18.74067950160341 14.47498290684409 28.14641276725602
1076 5 18.47295550872336 32.1427381084433 28.14641276725602
1077 2 19.00840349448345 -0.7829797368332174 26.23482969875386
1078 2 18.74067950160341 16.884775464766 26.23482969875386
1079 4 19.00840349448345 1.626812821088697 24.32324663025169
1080 1 18.74067950160341 19.29456802268792 24.32324663025169
1081 3 19.00840349448345 4.036605379010611 22.41166356174952
1082 5 18.74067950160341 21.70436058060983 22.41166356174952
1083 4 19.00840349448345 6.446397936932525 20.50008049324736
1084 2 18.74067950160341 24.11415313853174 20.50008049324736
1085 4 19.00840349448345 8.85619049485444 18.58849742474519
1086 2 18.74067950160341 26.52394569645366 18.58849742474519
1087 5 19.00840349448345 11.26598305277635 16.67691435624303
1088 4 18.74067950160341 28.93373825437557 16.67691435624303
1089 3 19.00840349448345 13.67577561069827 14.76533128774086
1090 5 18.74067950160341 31.34353081229748 14.76533128774086
1091 1 19.00840349448345 16.08556816862018 12.8537482192387
1092 5 18.74067950160341 33.7533233702194 12.8537482192387
1093 1 19.2761274873635 0.8276055249428784 10.94216515073653
1094 5 19.00840349448345 18.4953607265421 10.94216515073653
1095 5 19.2761274873635 3.237398082864793 9.030582082234368
1096 4 19.00840349448345 20.90515328446401 9.030582082234368
1097 2 19.2761274873635 5.647190640786707 7.118999013732202
1098 1 19.00840349448346 23.31494584238592 7.118999013732202
1099 2 19.2761274873635 8.056983198708622 5.207415945230036
1100 2 19.00840349448345 25.72473840030784 5.207415945230036
1101 2 19.2761274873635 10.46677575663053 3.295832876727871
1102 1 19.00840349448346 28.13453095822975 3.295832876727871
1103 4 19.2761274873635 12.87656831455245 1.384249808225706
1104 1 19.00840349448346 30.54432351615166 1.384249808225706
1105 3 19.2761274873635 13.94758722918441 32.43099550700225
1106 1 19.00840349448346 31.61534243078362 32.43099550700226
1107 2 19.2761274873635 16.35737978710632 30.51941243850009
1108 2 19.00840349448346 34.02513498870555 30.51941243850009
1109 5 19.54385148024355 1.099417143429018 28.60782936999793
1110 3 19.2761274873635 18.76717234502824 28.60782936999792
1111 4 19.54385148024355 3.509209701350932 26.69624630149576
1112 5 19.2761274873635 21.17696490295015 26.69624630149575
1113 3 19.54385148024355 5.919002259272847 24.78466323299359
1114 5 19.27612748736351 23.58675746087206 24.78466323299359
1115 4 19.54385148024355 8.32879481719476 22.87308016449143
1116 3 19.27612748736351 25.99655001879398 22.87308016449143
1117 3 19.54385148024355 10.73858737511667 20.96149709598926
1118 3 19.27612748736351 28.4063425767159 20.96149709598926
1119 4 19.54385148024355 13.14837993303859 19.04991402748709
1120 5 19.27612748736351 30.81613513463781 19.04991402748709
1121 4 19.54385148024355 15.5581724909605 17.13833095898493
1122 3 19.27612748736351 33.22592769255971 17.13833095898493
1123 3 19.8115754731236 0.3002098472832001 15.22674789048276
1124 5 19.54385148024355 17.96796504888242 15.22674789048276
1125 3 19.8115754731236 2.710002405205114 13.3151648219806
1126 5 19.54385148024355 20.37775760680433 13.3151648219806
1127 3 19.8115754731236 5.119794963127029 11.40358175347843
1128 1 19.54385148024355 22.78755016472624 11.40358175347843
1129 4 19.8115754731236 7.529587521048942 9.49199868497627
1130 4 19.54385148024355 25.19734272264816 9.49199868497627
1131 4 19.8115754731236 9.939380078970855 7.580415616474104
1132 5 19.54385148024355 27.60713528057008 7.580415616474104
1133 3 19.8115754731236 12.34917263689277 5.668832547971938
1134 5 19.54385148024355 30.01692783849199 5.668832547971938
1135 5 19.8115754731236 14.75896519481468 3.757249479469773
1136 2 19.54385148024355 32.4267203964139 3.757249479469774
1137 4 19.8115754731236 17.1687577527366 1.845666410967608
1138 3 19.54385148024355 34.83651295433581 1.845666410967608
1139 3 20.07929946600364 0.5720214657693392 32.89241210974416
1140 4 19.8115754731236 18.23977666736856 32.89241210974416
1141 4 20.07929946600364 2.981814023691254 30.98082904124199
1142 4 19.8115754731236 20.64956922529047 30.98082904124199
1143 2 20.07929946600365 5.391606581613169 29.06924597273982
1144 1 19.8115754731236 23.05936178321238 29.06924597273982
1145 1 20.07929946600365 7.801399139535083 27.15766290423766
1146 2 19.8115754731236 25.4691543411343 27.15766290423766
1147 5 20.07929946600364 10.211191697457 25.24607983573549
1148 3 19.8115754731236 27.87894689905621 25.2460798357355
1149 3 20.07929946600364 12.62098425537891 23.33449676723333
1150 4 19.8115754731236 30.28873945697812 23.33449676723333
1151 5 20.07929946600365 15.03077681330083 21.42291369873116
1152 4 19.8115754731236 32.69853201490004 21.42291369873116
1153 3 20.34702345888369 -0.2271858303764787 19.511330630229
1154 1 20.07929946600365 17.44056937122274 19.51133063022899
1155 1 20.34702345888369 2.182606727545435 17.59974756172683
1156 2 20.07929946600365 19.85036192914465 17.59974756172683
1157 1 20.34702345888369 4.592399285467349 15.68816449322467
1158 2 20.07929946600365 22.26015448706656 15.68816449322467
1159 4 20.34702345888369 7.002191843389263 13.7765814247225
1160 3 20.07929946600365 24.66994704498848 13.7765814247225
1161 2 20.34702345888369 9.411984401311178 11.86499835622034
1162 2 20.07929946600365 27.07973960291039 11.86499835622033
1163 4 20.3470234588837 11.82177695923309 9.953415287718169
1164 4 20.07929946600365 29.48953216083231 9.953415287718169
1165 5 20.34702345888369 14.23156951715501 8.041832219216007
1166 3 20.07929946600365 31.89932471875423 8.041832219216005
1167 3 20.34702345888369 16.64136207507692 6.13024915071384
1168 5 20.07929946600365 34.30911727667613 6.130249150713839
1169 3 20.61474745176374 1.383399431399617 4.218666082211675
1170 5 20.34702345888369 19.05115463299883 4.218666082211675
1171 4 20.61474745176374 3.793191989321532 2.30708301370951
1172 3 20.34702345888369 21.46094719092074 2.30708301370951
1173 3 20.61474745176374 6.202984547243446 0.3954999452073442
1174 5 20.3470234588837 23.87073974884266 0.3954999452073443
1175 5 20.61474745176375 7.274003461875404 31.44224564398389
1176 1 20.3470234588837 24.94175866347462 31.44224564398389
1177 2 20.61474745176374 9.683796019797319 29.53066257548172
1178 5 20.3470234588837 27.35155122139653 29.53066257548172
1179 2 20.61474745176374 12.09358857771923 27.61907950697956
1180 5 20.3470234588837 29.76134377931845 27.61907950697956
1181 1 20.61474745176374 14.50338113564115 25.7074964384774
1182 5 20.3470234588837 32.17113633724036 25.7074964384774
1183 4 20.88247144464379 -0.7545815080361575 23.79591336997523
1184 4 20.61474745176375 16.91317369356306 23.79591336997523
1185 5 20.88247144464379 1.655211049885757 21.88433030147306
1186 5 20.61474745176374 19.32296625148497 21.88433030147306
1187 2 20.88247144464379 4.065003607807671 19.9727472329709
1188 1 20.61474745176375 21.73275880940689 19.9727472329709
1189 4 20.88247144464379 6.474796165729585 18.06116416446874
1190 2 20.61474745176375 24.1425513673288 18.06116416446874
1191 4 20.88247144464379 8.884588723651499 16.14958109596657
1192 3 20.61474745176375 26.55234392525072 16.14958109596657
1193 5 20.88247144464379 11.29438128157341 14.2379980274644
1194 2 20.61474745176375 28.96213648317263 14.23799802746441
1195 2 20.88247144464379 13.70417383949533 12.32641495896224
1196 3 20.61474745176375 31.37192904109454 12.32641495896224
1197 5 20.88247144464379 16.11396639741724 10.41483189046007
1198 4 20.61474745176375 33.78172159901646 10.41483189046007
1199 1 21.15019543752384 0.856003753739939 8.503248821957907
1200 3 20.88247144464379 18.52375895533916 8.503248821957907
1201 2 21.15019543752384 3.265796311661852 6.591665753455741
1202 4 20.88247144464379 20.93355151326107 6.591665753455741
1203 1 21.15019543752384 5.675588869583767 4.680082684953576
1204 3 20.88247144464379 23.34334407118298 4.680082684953576
1205 3 21.15019543752384 8.085381427505681 2.768499616451412
1206 2 20.88247144464379 25.7531366291049 2.768499616451411
1207 4 21.15019543752384 10.49517398542759 0.8569165479492462
1208 5 20.88247144464379 28.16292918702681 0.8569165479492459
1209 3 21.15019543752384 11.56619290005955 31.90366224672579
1210 5 20.8824714446438 29.23394810165877 31.90366224672579
1211 2 21.15019543752384 13.97598545798147 29.99207917822363
1212 1 20.88247144464379 31.64374065958069 29.99207917822363
1213 4 21.15019543752384 16.38577801590338 28.08049610972146
1214 3 20.88247144464379 34.0535332175026 28.08049610972146
1215 1 21.41791943040389 1.127815372226078 26.1689130412193
1216 2 21.15019543752384 18.7955705738253 26.1689130412193
1217 2 21.41791943040389 3.537607930147992 24.25732997271713
1218 1 21.15019543752384 21.20536313174721 24.25732997271713
1219 2 21.41791943040389 5.947400488069906 22.34574690421497
1220 1 21.15019543752384 23.61515568966912 22.34574690421497
1221 4 21.41791943040389 8.357193045991821 20.4341638357128
1222 3 21.15019543752384 26.02494824759104 20.4341638357128
1223 5 21.41791943040389 10.76698560391373 18.52258076721064
1224 4 21.15019543752384 28.43474080551295 18.52258076721064
1225 4 21.41791943040389 13.17677816183565 16.61099769870847
1226 3 21.15019543752384 30.84453336343486 16.61099769870847
1227 4 21.41791943040389 15.58657071975756 14.69941463020631
1228 4 21.15019543752384 33.25432592135678 14.69941463020631
1229 3 21.68564342328394 0.32860807608026 12.78783156170414
1230 1 21.41791943040389 17.99636327767948 12.78783156170414
1231 3 21.68564342328393 2.738400634002174 10.87624849320197
1232 4 21.41791943040389 20.40615583560139 10.87624849320197
1233 2 21.68564342328394 5.148193191924087 8.96466542469981
1234 2 21.41791943040389 22.8159483935233 8.96466542469981
1235 2 21.68564342328394 7.557985749846003 7.053082356197644
1236 4 21.41791943040389 25.22574095144522 7.053082356197644
1237 1 21.68564342328394 9.967778307767917 5.141499287695479
1238 1 21.41791943040389 27.63553350936714 5.141499287695479
1239 1 21.68564342328394 12.37757086568983 3.229916219193314
1240 4 21.41791943040389 30.04532606728905 3.229916219193314
1241 3 21.68564342328394 14.78736342361174 1.318333150691148
1242 3 21.41791943040389 32.45511862521096 1.318333150691148
1243 2 21.68564342328394 15.8583823382437 32.36507884946769
1244 4 21.41791943040389 33.52613753984292 32.3650788494677
1245 2 21.95336741616398 0.6004196945663993 30.45349578096553
1246 3 21.68564342328394 18.26817489616562 30.45349578096553
1247 5 21.95336741616399 3.010212252488314 28.54191271246337
1248 1 21.68564342328394 20.67796745408753 28.54191271246336
1249 5 21.95336741616399 5.420004810410227 26.6303296439612
1250 5 21.68564342328394 23.08776001200944 26.6303296439612
1251 2 21.95336741616399 7.829797368332142 24.71874657545904
1252 3 21.68564342328394 25.49755256993136 24.71874657545903
1253 5 21.95336741616399 10.23958992625406 22.80716350695687
1254 2 21.68564342328394 27.90734512785328 22.80716350695687
1255 1 21.95336741616399 12.64938248417597 20.8955804384547
1256 4 21.68564342328394 30.31713768577519 20.8955804384547
1257 3 21.95336741616399 15.05917504209788 18.98399736995254
1258 3 21.68564342328394 32.7269302436971 18.98399736995253
1259 3 22.22109140904403 -0.1987876015794188 17.07241430145037
1260 4 21.95336741616399 17.4689676000198 17.07241430145038
1261 4 22.22109140904404 2.211004956342495 15.16083123294821
1262 1 21.95336741616399 19.87876015794171 15.16083123294821
1263 4 22.22109140904403 4.620797514264409 13.24924816444604
1264 3 21.95336741616399 22.28855271586362 13.24924816444604
1265 4 22.22109140904404 7.030590072186324 11.33766509594388
1266 2 21.95336741616399 24.69834527378554 11.33766509594388
1267 4 22.22109140904404 9.440382630108239 9.426082027441712
1268 4 21.95336741616399 27.10813783170746 9.426082027441712
1269 5 22.22109140904404 11.85017518803015 7.514498958939546
1270 4 21.95336741616399 29.51793038962937 7.514498958939546
1271 1 22.22109140904404 14.25996774595207 5.602915890437381
1272 2 21.95336741616399 31.92772294755128 5.602915890437381
1273 2 22.22109140904404 16.66976030387398 3.691332821935216
1274 2 21.95336741616399 34.3375155054732 3.691332821935216
1275 3 22.48881540192408 1.411797660196677 1.77974975343305
1276 5 22.22109140904404 19.0795528617959 1.77974975343305
1277 2 22.48881540192408 2.482816574828635 32.8264954522096
1278 1 22.22109140904404 20.15057177642785 32.8264954522096
1279 2 22.48881540192408 4.892609132750549 30.91491238370743
1280 3 22.22109140904404 22.56036433434977 30.91491238370743
1281 5 22.48881540192408 7.302401690672463 29.00332931520527
1282 5 22.22109140904404 24.97015689227168 29.00332931520527
1283 2 22.48881540192408 9.712194248594377 27.0917462467031
1284 4 22.22109140904404 27.3799494501936 27.0917462467031
1285 1 22.48881540192408 12.12198680651629 25.18016317820094
1286 5 22.22109140904404 29.78974200811551 25.18016317820094
1287 1 22.48881540192408 14.53177936443821 23.26858010969877
1288 4 22.22109140904404 32.19953456603743 23.26858010969877
1289 1 22.75653939480413 -0.7261832792390976 21.35699704119661
1290 5 22.48881540192409 16.94157192236012 21.3569970411966
1291 5 22.75653939480413 1.683609278682816 19.44541397269444
1292 2 22.48881540192409 19.35136448028203 19.44541397269444
1293 5 22.75653939480414 4.09340183660473 17.53383090419227
1294 2 22.48881540192409 21.76115703820394 17.53383090419227
1295 2 22.75653939480413 6.503194394526644 15.62224783569011
1296 2 22.48881540192409 24.17094959612586 15.62224783569011
1297 3 22.75653939480414 8.912986952448557 13.71066476718794
1298 1 22.48881540192409 26.58074215404778 13.71066476718794
1299 5 22.75653939480414 11.32277951037047 11.79908169868578
1300 4 22.48881540192409 28.99053471196969 11.79908169868578
1301 4 22.75653939480414 13.73257206829239 9.887498630183613
1302 2 22.48881540192409 31.4003272698916 9.887498630183613
1303 4 22.75653939480414 16.1423646262143 7.975915561681449
1304 1 22.48881540192409 33.81011982781352 7.975915561681447
1305 5 23.02426338768418 0.8844019825369985 6.064332493179283
1306 2 22.75653939480414 18.55215718413622 6.064332493179283
1307 5 23.02426338768418 3.294194540458912 4.152749424677117
1308 4 22.75653939480414 20.96194974205813 4.152749424677117
1309 4 23.02426338768418 5.703987098380827 2.241166356174952
1310 4 22.75653939480414 23.37174229998005 2.241166356174952
1311 4 23.02426338768418 8.113779656302739 0.3295832876727868
1312 5 22.75653939480414 25.78153485790196 0.3295832876727869
1313 3 23.02426338768418 9.184798570934698 31.37632898644933
1314 3 22.75653939480414 26.85255377253391 31.37632898644933
1315 1 23.02426338768418 11.59459112885661 29.46474591794717
1316 3 22.75653939480414 29.26234633045583 29.46474591794717
1317 4 23.02426338768418 14.00438368677853 27.55316284944501
1318 2 22.75653939480414 31.67213888837774 27.553162849445
1319 1 23.02426338768418 16.41417624470044 25.64157978094284
1320 3 22.75653939480414 34.08193144629966 25.64157978094284
1321 1 23.29198738056423 1.156213601023138 23.72999671244067
1322 2 23.02426338768418 18.82396880262236 23.72999671244067
1323 4 23.29198738056423 3.566006158945052 21.81841364393851
1324 3 23.02426338768418 21.23376136054427 21.81841364393851
1325 1 23.29198738056423 5.975798716866966 19.90683057543634
1326 3 23.02426338768418 23.64355391846619 19.90683057543635
1327 4 23.29198738056423 8.385591274788879 17.99524750693418
1328 4 23.02426338768418 26.0533464763881 17.99524750693418
1329 1 23.29198738056423 10.7953838327108 16.08366443843201
1330 2 23.02426338768418 28.46313903431001 16.08366443843201
1331 4 23.29198738056423 13.20517639063271 14.17208136992985
1332 2 23.02426338768418 30.87293159223193 14.17208136992985
1333 4 23.29198738056423 15.61496894855462 12.26049830142768
1334 4 23.02426338768419 33.28272415015384 12.26049830142768
1335 3 23.55971137344428 0.35700630487732 10.34891523292552
1336 3 23.29198738056423 18.02476150647654 10.34891523292552
1337 1 23.55971137344428 2.766798862799234 8.437332164423349
1338 2 23.29198738056423 20.43455406439845 8.437332164423349
1339 4 23.55971137344428 5.176591420721148 6.525749095921184
1340 4 23.29198738056423 22.84434662232036 6.525749095921184
1341 5 23.55971137344428 7.586383978643061 4.614166027419019
1342 4 23.29198738056423 25.25413918024228 4.614166027419019
1343 2 23.55971137344428 9.996176536564978 2.702582958916854
1344 5 23.29198738056423 27.66393173816419 2.702582958916854
1345 1 23.55971137344428 12.40596909448689 0.7909998904146888
1346 2 23.29198738056423 30.07372429608611 0.7909998904146883
1347 2 23.55971137344428 13.47698800911885 31.83774558919124
1348 3 23.29198738056423 31.14474321071806 31.83774558919123
1349 2 23.55971137344428 15.88678056704076 29.92616252068907
1350 4 23.29198738056423 33.55453576863999 29.92616252068907
1351 2 23.82743536632432 0.6288179233634597 28.0145794521869
1352 1 23.55971137344428 18.29657312496267 28.0145794521869
1353 2 23.82743536632432 3.038610481285373 26.10299638368474
1354 3 23.55971137344428 20.70636568288459 26.10299638368474
1355 3 23.82743536632432 5.448403039207287 24.19141331518258
1356 3 23.55971137344428 23.1161582408065 24.19141331518258
1357 1 23.82743536632433 7.858195597129201 22.27983024668041
1358 3 23.55971137344428 25.52595079872842 22.27983024668041
1359 5 23.82743536632432 10.26798815505112 20.36824717817824
1360 4 23.55971137344428 27.93574335665033 20.36824717817824
1361 2 23.82743536632433 12.67778071297303 18.45666410967608
1362 3 23.55971137344428 30.34553591457224 18.45666410967608
1363 5 23.82743536632433 15.08757327089494 16.54508104117392
1364 1 23.55971137344428 32.75532847249416 16.54508104117392
1365 1 24.09515935920437 -0.170389372782359 14.63349797267175
1366 4 23.82743536632433 17.49736582881686 14.63349797267175
1367 3 24.09515935920437 2.239403185139555 12.72191490416958
1368 4 23.82743536632433 19.90715838673877 12.72191490416958
1369 3 24.09515935920437 4.649195743061469 10.81033183566742
1370 2 23.82743536632433 22.31695094466068 10.81033183566742
1371 4 24.09515935920437 7.058988300983383 8.898748767165252
1372 5 23.82743536632433 24.7267435025826 8.898748767165252
1373 1 24.09515935920437 9.468780858905298 6.987165698663087
1374 5 23.82743536632433 27.13653606050452 6.987165698663087
1375 2 24.09515935920437 11.87857341682721 5.075582630160921
1376 3 23.82743536632433 29.54632861842643 5.075582630160921
1377 1 24.09515935920438 14.28836597474912 3.163999561658756
1378 5 23.82743536632433 31.95612117634835 3.163999561658756
1379 5 24.09515935920437 16.69815853267104 1.252416493156591
1380 3 23.82743536632433 34.36591373427025 1.252416493156591
1381 5 24.36288335208442 0.1014222457037812 32.29916219193314
1382 4 24.09515935920438 17.769177447303 32.29916219193314
1383 2 24.36288335208442 2.511214803625695 30.38757912343097
1384 1 24.09515935920437 20.17897000522492 30.38757912343097
1385 2 24.36288335208442 4.921007361547609 28.47599605492881
1386 1 24.09515935920438 22.58876256314683 28.47599605492881
1387 3 24.36288335208442 7.330799919469523 26.56441298642664
1388 3 24.09515935920438 24.99855512106874 26.56441298642664
1389 5 24.36288335208442 9.740592477391436 24.65282991792448
1390 3 24.09515935920438 27.40834767899066 24.65282991792447
1391 4 24.36288335208442 12.15038503531335 22.74124684942231
1392 1 24.09515935920438 29.81814023691257 22.74124684942231
1393 4 24.36288335208442 14.56017759323526 20.82966378092014
1394 3 24.09515935920438 32.22793279483448 20.82966378092014
1395 5 24.63060734496447 -0.6977850504420378 18.91808071241798
1396 3 24.36288335208443 16.96997015115718 18.91808071241798
1397 3 24.63060734496447 1.712007507479877 17.00649764391581
1398 2 24.36288335208443 19.37976270907909 17.00649764391582
1399 3 24.63060734496447 4.121800065401791 15.09491457541365
1400 4 24.36288335208443 21.78955526700101 15.09491457541365
1401 2 24.63060734496447 6.531592623323704 13.18333150691148
1402 5 24.36288335208443 24.19934782492292 13.18333150691148
1403 3 24.63060734496447 8.94138518124562 11.27174843840932
1404 3 24.36288335208443 26.60914038284483 11.27174843840932
1405 1 24.63060734496447 11.35117773916753 9.360165369907154
1406 3 24.36288335208443 29.01893294076675 9.360165369907154
1407 5 24.63060734496447 13.76097029708944 7.448582301404989
1408 2 24.36288335208443 31.42872549868866 7.448582301404989
1409 3 24.63060734496448 16.17076285501136 5.536999232902824
1410 1 24.36288335208443 33.83851805661057 5.536999232902824
1411 4 24.89833133784452 0.9128002113340592 3.625416164400658
1412 1 24.63060734496447 18.58055541293328 3.625416164400658
1413 4 24.89833133784451 3.322592769255972 1.713833095898493
1414 3 24.63060734496448 20.99034797085519 1.713833095898493
1415 2 24.89833133784452 4.39361168388793 32.76057879467504
1416 3 24.63060734496447 22.06136688548715 32.76057879467504
1417 5 24.89833133784452 6.803404241809845 30.84899572617288
1418 2 24.63060734496448 24.47115944340906 30.84899572617288
1419 1 24.89833133784452 9.213196799731758 28.93741265767071
1420 5 24.63060734496448 26.88095200133098 28.93741265767071
1421 3 24.89833133784452 11.62298935765367 27.02582958916854
1422 4 24.63060734496448 29.29074455925289 27.02582958916854
1423 1 24.89833133784452 14.03278191557559 25.11424652066638
1424 2 24.63060734496448 31.7005371171748 25.11424652066638
1425 1 24.89833133784452 16.4425744734975 23.20266345216421
1426 1 24.63060734496448 34.11032967509671 23.20266345216421
1427 1 25.16605533072457 1.184611829820198 21.29108038366205
1428 3 24.89833133784452 18.85236703141942 21.29108038366205
1429 1 25.16605533072457 3.594404387742112 19.37949731515988
1430 2 24.89833133784452 21.26215958934133 19.37949731515988
1431 3 25.16605533072457 6.004196945664027 17.46791424665772
1432 1 24.89833133784452 23.67195214726324 17.46791424665772
1433 4 25.16605533072457 8.41398950358594 15.55633117815555
1434 2 24.89833133784452 26.08174470518516 15.55633117815555
1435 1 25.16605533072457 10.82378206150786 13.64474810965338
1436 3 24.89833133784452 28.49153726310707 13.64474810965338
1437 2 25.16605533072457 13.23357461942977 11.73316504115122
1438 5 24.89833133784452 30.90132982102899 11.73316504115122
1439 4 25.16605533072457 15.64336717735168 9.821581972649055
1440 3 24.89833133784452 33.3111223789509 9.821581972649055
1441 5 25.43377932360461 0.3854045336743797 7.909998904146891
1442 1 25.16605533072457 18.0531597352736 7.909998904146891
1443 4 25.43377932360462 2.795197091596294 5.998415835644725
1444 4 25.16605533072457 20.46295229319551 5.998415835644725
1445 4 25.43377932360461 5.204989649518208 4.086832767142559
1446 3 25.16605533072457 22.87274485111742 4.086832767142559
1447 2 25.43377932360462 7.614782207440122 2.175249698640394
1448 5 25.16605533072457 25.28253740903934 2.175249698640395
1449 5 25.43377932360462 10.02457476536204 0.2636666301382293
1450 5 25.16605533072457 27.69232996696125 0.2636666301382294
1451 3 25.43377932360462 11.09559367999399 31.31041232891478
1452 3 25.16605533072457 28.76334888159321 31.31041232891478
1453 4 25.43377932360462 13.50538623791591 29.39882926041261
1454 3 25.16605533072457 31.17314143951512 29.39882926041261
1455 5 25.43377932360462 15.91517879583782 27.48724619191045
1456 1 25.16605533072457 33.58293399743704 27.48724619191044
1457 4 25.70150331648466 0.6572161521605193 25.57566312340828
1458 5 25.43377932360462 18.32497135375974 25.57566312340828
1459 2 25.70150331648466 3.067008710082433 23.66408005490612
1460 2 25.43377932360462 20.73476391168165 23.66408005490612
1461 3 25.70150331648467 5.476801268004347 21.75249698640395
1462 3 25.43377932360462 23.14455646960356 21.75249698640395
1463 3 25.70150331648467 7.886593825926262 19.84091391790178
1464 4 25.43377932360462 25.55434902752548 19.84091391790179
1465 1 25.70150331648467 10.29638638384817 17.92933084939962
1466 2 25.43377932360462 27.96414158544739 17.92933084939962
1467 5 25.70150331648467 12.70617894177009 16.01774778089745
1468 1 25.43377932360462 30.3739341433693 16.01774778089746
1469 4 25.70150331648467 15.115971499692 14.10616471239529
1470 1 25.43377932360462 32.78372670129122 14.10616471239529
1471 3 25.96922730936471 -0.1419911439852989 12.19458164389312
1472 4 25.70150331648467 17.52576405761392 12.19458164389312
1473 4 25.96922730936471 2.267801413936615 10.28299857539096
1474 5 25.70150331648467 19.93555661553583 10.28299857539096
1475 1 25.96922730936472 4.67759397185853 8.371415506888791
1476 2 25.70150331648467 22.34534917345774 8.371415506888791
1477 2 25.96922730936471 7.087386529780443 6.459832438386627
1478 3 25.70150331648467 24.75514173137966 6.459832438386627
1479 4 25.96922730936472 9.497179087702358 4.548249369884461
1480 2 25.70150331648467 27.16493428930158 4.548249369884461
1481 1 25.96922730936472 11.90697164562427 2.636666301382297
1482 2 25.70150331648467 29.57472684722349 2.636666301382296
1483 1 25.96922730936472 14.31676420354618 0.7250832328801312
1484 4 25.70150331648467 31.9845194051454 0.7250832328801309
1485 1 25.96922730936472 15.38778311817814 31.77182893165668
1486 1 25.70150331648467 33.05553831977736 31.77182893165668
1487 2 26.23695130224477 0.1298204745008411 29.86024586315451
1488 3 25.96922730936472 17.79757567610006 29.86024586315451
1489 1 26.23695130224476 2.539613032422755 27.94866279465235
1490 4 25.96922730936472 20.20736823402197 27.94866279465235
1491 1 26.23695130224476 4.949405590344668 26.03707972615019
1492 5 25.96922730936472 22.61716079194388 26.03707972615018
1493 4 26.23695130224477 7.359198148266582 24.12549665764802
1494 3 25.96922730936472 25.0269533498658 24.12549665764802
1495 4 26.23695130224477 9.768990706188497 22.21391358914585
1496 3 25.96922730936472 27.43674590778771 22.21391358914585
1497 2 26.23695130224476 12.17878326411041 20.30233052064369
1498 4 25.96922730936472 29.84653846570962 20.30233052064369
1499 3 26.23695130224476 14.58857582203232 18.39074745214152
1500 3 25.96922730936472 32.25633102363155 18.39074745214152
1501 5 25.96922730936471 34.66612358155346 16.47916438363936
1502 1 26.23695130224476 16.99836837995424 16.47916438363936
1503 4 26.50467529512481 1.740405736276937 14.56758131513719
1504 5 26.23695130224476 19.40816093787615 14.56758131513719
1505 4 26.50467529512481 4.150198294198851 12.65599824663503
1506 3 26.23695130224476 21.81795349579806 12.65599824663503
1507 1 26.50467529512481 6.559990852120766 10.74441517813286
1508 3 26.23695130224476 24.22774605371998 10.74441517813286
1509 3 26.50467529512481 8.96978341004268 8.832832109630694
1510 3 26.23695130224477 26.6375386116419 8.832832109630694
1511 1 26.50467529512481 11.37957596796459 6.921249041128529
1512 3 26.23695130224476 29.04733116956381 6.921249041128529
1513 5 26.50467529512482 13.78936852588651 5.009665972626363
1514 1 26.23695130224477 31.45712372748572 5.009665972626363
1515 5 26.50467529512482 16.19916108380842 3.098082904124198
1516 1 26.23695130224477 33.86691628540764 3.098082904124199
1517 2 26.77239928800486 0.9411984401311188 1.186499835622033
1518 5 26.50467529512482 18.60895364173033 1.186499835622033
1519 2 26.77239928800486 2.012217354763077 32.23324553439858
1520 4 26.50467529512482 19.67997255636229 32.23324553439858
1521 1 26.77239928800486 4.42200991268499 30.32166246589642
1522 5 26.50467529512482 22.08976511428421 30.32166246589642
1523 3 26.77239928800486 6.831802470606903 28.41007939739425
1524 2 26.50467529512482 24.49955767220612 28.41007939739425
1525 3 26.77239928800486 9.241595028528819 26.49849632889208
1526 2 26.50467529512482 26.90935023012804 26.49849632889208
1527 1 26.77239928800486 11.65138758645073 24.58691326038992
1528 2 26.50467529512482 29.31914278804995 24.58691326038992
1529 2 26.77239928800486 14.06118014437265 22.67533019188775
1530 4 26.50467529512482 31.72893534597187 22.67533019188775
1531 5 26.77239928800486 16.47097270229456 20.76374712338559
1532 4 26.50467529512482 34.13872790389378 20.76374712338559
1533 3 27.04012328088491 1.213010058617258 18.85216405488342
1534 1 26.77239928800486 18.88076526021647 18.85216405488342
1535 5 27.04012328088491 3.622802616539172 16.94058098638126
1536 1 26.77239928800486 21.29055781813839 16.94058098638126
1537 4 27.04012328088491 6.032595174461086 15.02899791787909
1538 3 26.77239928800486 23.7003503760603 15.02899791787909
1539 2 27.04012328088491 8.442387732383001 13.11741484937693
1540 4 26.77239928800486 26.11014293398222 13.11741484937693
1541 1 27.04012328088491 10.85218029030491 11.20583178087476
1542 2 26.77239928800487 28.51993549190414 11.20583178087476
1543 2 27.04012328088491 13.26197284822683 9.294248712372596
1544 1 26.77239928800486 30.92972804982604 9.294248712372596
1545 4 27.04012328088491 15.67176540614874 7.382665643870431
1546 5 26.77239928800486 33.33952060774796 7.382665643870431
1547 4 27.30784727376496 0.4138027624714402 5.471082575368266
1548 5 27.04012328088491 18.08155796407066 5.471082575368266
1549 2 27.30784727376496 2.823595320393354 3.559499506866101
1550 3 27.04012328088491 20.49135052199257 3.559499506866101
1551 3 27.30784727376495 5.233387878315267 1.647916438363936
1552 3 27.04012328088491 22.90114307991448 1.647916438363935
1553 4 27.30784727376496 6.304406792947225 32.69466213714048
1554 5 27.04012328088491 23.97216199454644 32.69466213714048
1555 3 27.30784727376496 8.714199350869139 30.78307906863832
1556 2 27.04012328088491 26.38195455246835 30.78307906863832
1557 4 27.30784727376496 11.12399190879105 28.87149600013615
1558 4 27.04012328088491 28.79174711039027 28.87149600013615
1559 2 27.30784727376496 13.53378446671297 26.95991293163398
1560 1 27.04012328088491 31.20153966831218 26.95991293163399
1561 3 27.30784727376496 15.94357702463488 25.04832986313182
1562 1 27.04012328088492 33.6113322262341 25.04832986313182
1563 5 27.575571266645 0.6856143809575793 23.13674679462965
1564 2 27.30784727376496 18.3533695825568 23.13674679462965
1565 1 27.57557126664501 3.095406938879493 21.22516372612749
1566 2 27.30784727376496 20.76316214047871 21.22516372612749
1567 5 27.57557126664501 5.505199496801407 19.31358065762533
1568 1 27.30784727376496 23.17295469840062 19.31358065762532
1569 4 27.57557126664501 7.914992054723321 17.40199758912316
1570 2 27.30784727376496 25.58274725632254 17.40199758912316
1571 2 27.57557126664501 10.32478461264524 15.49041452062099
1572 2 27.30784727376496 27.99253981424445 15.49041452062099
1573 1 27.57557126664501 12.73457717056715 13.57883145211883
1574 1 27.30784727376496 30.40233237216637 13.57883145211883
1575 5 27.57557126664501 15.14436972848906 11.66724838361666
1576 4 27.30784727376496 32.81212493008828 11.66724838361666
1577 3 27.84329525952505 -0.1135929151882393 9.755665315114497
1578 1 27.57557126664501 17.55416228641098 9.755665315114497
1579 1 27.84329525952505 2.296199642733676 7.844082246612333
1580 4 27.57557126664501 19.96395484433289 7.844082246612333
1581 5 27.84329525952505 4.70599220065559 5.932499178110167
1582 3 27.57557126664501 22.37374740225481 5.932499178110167
1583 4 27.84329525952505 7.115784758577503 4.020916109608002
1584 5 27.57557126664501 24.78353996017672 4.020916109608002
1585 4 27.84329525952505 9.525577316499417 2.109333041105837
1586 2 27.57557126664501 27.19333251809864 2.109333041105837
1587 1 27.84329525952505 11.93536987442133 0.1977499726036718
1588 2 27.57557126664501 29.60312507602055 0.1977499726036719
1589 4 27.84329525952506 13.00638878905329 31.24449567138022
1590 5 27.57557126664501 30.67414399065251 31.24449567138022
1591 3 27.84329525952505 15.4161813469752 29.33291260287805
1592 1 27.57557126664501 33.08393654857442 29.33291260287805
1593 5 28.1110192524051 0.158218703297901 27.42132953437589
1594 4 27.84329525952505 17.82597390489711 27.42132953437589
1595 2 28.1110192524051 2.568011261219815 25.50974646587372
1596 4 27.84329525952506 20.23576646281903 25.50974646587373
1597 5 28.1110192524051 4.977803819141728 23.59816339737156
1598 1 27.84329525952505 22.64555902074094 23.59816339737156
1599 1 28.1110192524051 7.387596377063644 21.68658032886939
1600 3 27.84329525952506 25.05535157866286 21.68658032886939
1601 5 28.1110192524051 9.797388934985557 19.77499726036723
1602 5 27.84329525952506 27.46514413658477 19.77499726036723
1603 2 28.11101925240511 12.20718149290747 17.86341419186506
1604 2 27.84329525952506 29.87493669450668 17.86341419186506
1605 2 28.1110192524051 14.61697405082938 15.9518311233629
1606 1 27.84329525952506 32.2847292524286 15.9518311233629
1607 3 28.11101925240511 17.0267666087513 14.04024805486073
1608 1 27.84329525952506 34.69452181035052 14.04024805486073
1609 4 28.37874324528515 1.768803965073996 12.12866498635857
1610 5 28.1110192524051 19.43655916667321 12.12866498635857
1611 1 28.37874324528515 4.178596522995911 10.2170819178564
1612 2 28.1110192524051 21.84635172459512 10.2170819178564
1613 1 28.37874324528515 6.588389080917825 8.305498849354235
1614 3 28.11101925240511 24.25614428251704 8.305498849354235
1615 3 28.37874324528515 8.998181638839739 6.393915780852069
1616 5 28.11101925240511 26.66593684043896 6.393915780852069
1617 4 28.37874324528515 11.40797419676165 4.482332712349904
1618 4 28.11101925240511 29.07572939836087 4.482332712349904
1619 4 28.37874324528515 13.81776675468357 2.570749643847739
1620 5 28.11101925240511 31.48552195628278 2.570749643847739
1621 5 28.37874324528515 16.22755931260548 0.6591665753455738
1622 5 28.11101925240511 33.89531451420469 0.6591665753455735
1623 2 28.6464672381652 -0.3691769743617779 31.70591227412212
1624 5 28.37874324528515 17.29857822723744 31.70591227412212
1625 1 28.6464672381652 2.040615583560137 29.79432920561996
1626 2 28.37874324528515 19.70837078515936 29.79432920561996
1627 2 28.6464672381652 4.45040814148205 27.88274613711779
1628 2 28.37874324528516 22.11816334308127 27.88274613711779
1629 5 28.6464672381652 6.860200699403963 25.97116306861563
1630 5 28.37874324528515 24.52795590100318 25.97116306861562
1631 1 28.6464672381652 9.269993257325877 24.05958000011346
1632 5 28.37874324528516 26.9377484589251 24.05958000011346
1633 3 28.6464672381652 11.67978581524779 22.1479969316113
1634 5 28.37874324528516 29.34754101684701 22.1479969316113
1635 1 28.6464672381652 14.08957837316971 20.23641386310913
1636 2 28.37874324528516 31.75733357476892 20.23641386310913
1637 4 28.6464672381652 16.49937093109162 18.32483079460696
1638 4 28.37874324528516 34.16712613269083 18.32483079460696
1639 3 28.91419123104524 1.241408287414318 16.4132477261048
1640 4 28.64646723816521 18.90916348901353 16.4132477261048
1641 3 28.91419123104525 3.651200845336231 14.50166465760263
1642 3 28.6464672381652 21.31895604693545 14.50166465760263
1643 2 28.91419123104525 6.060993403258147 12.59008158910047
1644 4 28.6464672381652 23.72874860485736 12.59008158910047
1645 2 28.91419123104525 8.470785961180061 10.6784985205983
1646 5 28.64646723816521 26.13854116277928 10.6784985205983
1647 5 28.91419123104525 10.88057851910197 8.766915452096137
1648 2 28.64646723816521 28.54833372070119 8.766915452096137
1649 5 28.91419123104525 13.29037107702389 6.855332383593971
1650 1 28.6464672381652 30.95812627862311 6.855332383593971
1651 2 28.91419123104525 15.7001636349458 4.943749315091806
1652 3 28.64646723816521 33.36791883654502 4.943749315091806
1653 4 29.1819152239253 0.4422009912684999 3.032166246589641
1654 2 28.91419123104525 18.10995619286772 3.032166246589641
1655 2 29.1819152239253 2.851993549190414 1.120583178087476
1656 2 28.91419123104525 20.51974875078963 1.120583178087476
1657 5 29.1819152239253 3.923012463822372 32.16732887686402
1658 5 28.91419123104525 21.59076766542159 32.16732887686402
1659 4 29.1819152239253 6.332805021744285 30.25574580836186
1660 4 28.91419123104525 24.00056022334351 30.25574580836186
1661 1 29.1819152239253 8.742597579666199 28.34416273985969
1662 3 28.91419123104525 26.41035278126542 28.34416273985969
1663 3 29.1819152239253 11.15239013758812 26.43257967135753
1664 4 28.91419123104525 28.82014533918733 26.43257967135752
1665 5 29.1819152239253 13.56218269551003 24.52099660285536
1666 4 28.91419123104525 31.22993789710925 24.52099660285536
1667 2 29.1819152239253 15.97197525343194 22.6094135343532
1668 5 28.91419123104525 33.63973045503116 22.6094135343532
1669 4 29.44963921680534 0.7140126097546391 20.69783046585103
1670 2 29.1819152239253 18.38176781135386 20.69783046585103
1671 4 29.44963921680534 3.123805167676553 18.78624739734887
1672 4 29.1819152239253 20.79156036927577 18.78624739734887
1673 4 29.44963921680535 5.533597725598468 16.8746643288467
1674 2 29.1819152239253 23.20135292719769 16.8746643288467
1675 1 29.44963921680535 7.943390283520382 14.96308126034454
1676 5 29.1819152239253 25.6111454851196 14.96308126034454
1677 3 29.44963921680535 10.3531828414423 13.05149819184237
1678 4 29.1819152239253 28.02093804304151 13.05149819184237
1679 5 29.44963921680534 12.76297539936421 11.1399151233402
1680 3 29.1819152239253 30.43073060096343 11.1399151233402
1681 5 29.44963921680535 15.17276795728612 9.22833205483804
1682 4 29.1819152239253 32.84052315888534 9.22833205483804
1683 3 29.71736320968539 -0.08519468639117875 7.316748986335874
1684 5 29.44963921680535 17.58256051520804 7.316748986335874
1685 1 29.71736320968539 2.324597871530735 5.405165917833709
1686 1 29.44963921680535 19.99235307312996 5.405165917833709
1687 2 29.71736320968539 4.734390429452649 3.493582849331543
1688 1 29.44963921680535 22.40214563105187 3.493582849331544
1689 2 29.71736320968539 7.144182987374562 1.581999780829378
1690 2 29.44963921680535 24.81193818897378 1.581999780829378
1691 5 29.71736320968539 8.21520190200652 32.62874547960593
1692 5 29.44963921680535 25.88295710360574 32.62874547960593
1693 2 29.7173632096854 10.62499445992843 30.71716241110376
1694 3 29.44963921680535 28.29274966152765 30.71716241110376
1695 1 29.7173632096854 13.03478701785035 28.80557934260159
1696 5 29.44963921680535 30.70254221944957 28.80557934260159
1697 2 29.7173632096854 15.44457957577226 26.89399627409943
1698 4 29.44963921680535 33.11233477737148 26.89399627409943
1699 3 29.98508720256544 0.1866169320949609 24.98241320559726
1700 5 29.7173632096854 17.85437213369418 24.98241320559726
1701 1 29.98508720256544 2.596409490016875 23.0708301370951
1702 4 29.7173632096854 20.26416469161609 23.0708301370951
1703 4 29.98508720256544 5.006202047938788 21.15924706859294
1704 1 29.7173632096854 22.673957249538 21.15924706859293
1705 5 29.98508720256545 7.415994605860702 19.24766400009077
1706 1 29.7173632096854 25.08374980745992 19.24766400009077
1707 1 29.98508720256545 9.825787163782618 17.3360809315886
1708 4 29.7173632096854 27.49354236538183 17.3360809315886
1709 5 29.98508720256545 12.23557972170453 15.42449786308644
1710 2 29.7173632096854 29.90333492330375 15.42449786308644
1711 3 29.98508720256544 14.64537227962645 13.51291479458427
1712 4 29.7173632096854 32.31312748122566 13.51291479458427
1713 1 29.98508720256545 17.05516483754836 11.60133172608211
1714 2 29.7173632096854 34.72292003914757 11.6013317260821
1715 4 30.25281119544549 1.797202193871057 9.689748657579941
1716 3 29.98508720256544 19.46495739547027 9.689748657579941
1717 5 30.25281119544549 4.206994751792971 7.778165589077775
1718 3 29.98508720256545 21.87474995339219 7.778165589077776
1719 1 30.25281119544549 6.616787309714885 5.86658252057561
1720 3 29.98508720256545 24.2845425113141 5.86658252057561
1721 3 30.25281119544549 9.0265798676368 3.954999452073445
1722 1 29.98508720256545 26.69433506923601 3.954999452073445
1723 1 30.25281119544549 11.43637242555871 2.04341638357128
1724 3 29.98508720256545 29.10412762715793 2.04341638357128
1725 3 30.25281119544549 13.84616498348063 0.1318333150691143
1726 4 29.98508720256545 31.51392018507984 0.1318333150691145
1727 2 30.25281119544549 14.91718389811259 31.17857901384566
1728 5 29.98508720256545 32.5849390997118 31.17857901384566
1729 3 30.52053518832554 -0.340778745564718 29.2669959453435
1730 1 30.25281119544549 17.3269764560345 29.2669959453435
1731 1 30.52053518832554 2.069013812357196 27.35541287684133
1732 4 30.25281119544549 19.73676901395642 27.35541287684133
1733 4 30.52053518832554 4.47880637027911 25.44382980833916
1734 2 30.25281119544549 22.14656157187833 25.44382980833917
1735 5 30.52053518832554 6.888598928201024 23.532246739837
1736 5 30.25281119544549 24.55635412980024 23.532246739837
1737 5 30.52053518832555 9.298391486122938 21.62066367133484
1738 2 30.2528111954455 26.96614668772215 21.62066367133484
1739 1 30.52053518832555 11.70818404404485 19.70908060283267
1740 2 30.2528111954455 29.37593924564407 19.70908060283267
1741 5 30.52053518832555 14.11797660196677 17.7974975343305
1742 3 30.2528111954455 31.78573180356598 17.79749753433051
1743 4 30.52053518832554 16.52776915988868 15.88591446582834
1744 2 30.2528111954455 34.1955243614879 15.88591446582834
1745 5 30.78825918120558 1.269806516211377 13.97433139732617
1746 3 30.52053518832555 18.93756171781059 13.97433139732617
1747 3 30.78825918120559 3.679599074133292 12.06274832882401
1748 2 30.52053518832554 21.34735427573251 12.06274832882401
1749 5 30.78825918120559 6.089391632055206 10.15116526032184
1750 1 30.52053518832555 23.75714683365442 10.15116526032184
1751 1 30.78825918120559 8.49918418997712 8.239582191819677
1752 5 30.52053518832555 26.16693939157634 8.239582191819677
1753 4 30.78825918120559 10.90897674789903 6.327999123317512
1754 5 30.52053518832555 28.57673194949825 6.327999123317512
1755 2 30.78825918120559 13.31876930582095 4.416416054815346
1756 3 30.52053518832555 30.98652450742016 4.416416054815346
1757 2 30.78825918120559 15.72856186374286 2.504832986313182
1758 1 30.52053518832555 33.39631706534208 2.504832986313181
1759 1 31.05598317408564 0.4705992200655594 0.5932499178110158
1760 2 30.78825918120559 18.13835442166478 0.5932499178110163
1761 5 31.05598317408564 1.541618134697518 31.63999561658757
1762 2 30.78825918120559 19.20937333629674 31.63999561658757
1763 1 31.05598317408564 3.951410692619432 29.7284125480854
1764 5 30.78825918120559 21.61916589421865 29.7284125480854
1765 4 31.05598317408564 6.361203250541346 27.81682947958323
1766 1 30.78825918120559 24.02895845214056 27.81682947958323
1767 3 31.05598317408564 8.770995808463258 25.90524641108107
1768 4 30.78825918120559 26.43875101006248 25.90524641108107
1769 2 31.05598317408564 11.18078836638517 23.99366334257891
1770 5 30.78825918120559 28.84854356798439 23.99366334257891
1771 2 31.05598317408564 13.59058092430709 22.08208027407674
1772 1 30.78825918120559 31.25833612590631 22.08208027407674
1773 5 31.05598317408564 16.000373482229 20.17049720557457
1774 1 30.7882591812056 33.66812868382822 20.17049720557457
1775 2 31.32370716696568 0.7424108385516991 18.25891413707241
1776 4 31.05598317408564 18.41016604015092 18.25891413707241
1777 5 31.32370716696568 3.152203396473613 16.34733106857024
1778 1 31.05598317408564 20.81995859807283 16.34733106857024
1779 4 31.32370716696569 5.561995954395528 14.43574800006808
1780 2 31.05598317408564 23.22975115599474 14.43574800006808
1781 3 31.32370716696569 7.971788512317441 12.52416493156591
1782 2 31.05598317408564 25.63954371391666 12.52416493156591
1783 1 31.32370716696569 10.38158107023936 10.61258186306375
1784 4 31.05598317408564 28.04933627183857 10.61258186306375
1785 5 31.32370716696569 12.79137362816127 8.700998794561579
1786 4 31.05598317408564 30.45912882976049 8.700998794561579
1787 2 31.32370716696569 15.20116618608318 6.789415726059414
1788 4 31.05598317408565 32.8689213876824 6.789415726059414
1789 3 31.59143115984573 -0.05679645759411914 4.877832657557248
1790 1 31.32370716696569 17.6109587440051 4.877832657557248
1791 2 31.59143115984574 2.352996100327795 2.966249589055083
1792 4 31.32370716696569 20.02075130192701 2.966249589055084
1793 4 31.59143115984574 4.762788658249709 1.054666520552918
1794 5 31.32370716696569 22.43054385984892 1.054666520552918
1795 2 31.59143115984574 5.833807572881667 32.10141221932946
1796 3 31.32370716696569 23.50156277448088 32.10141221932946
1797 5 31.59143115984574 8.24360013080358 30.1898291508273
1798 3 31.32370716696569 25.9113553324028 30.1898291508273
1799 1 31.59143115984574 10.6533926887255 28.27824608232514
1800 2 31.32370716696569 28.32114789032471 28.27824608232513
1801 1 31.59143115984574 13.06318524664741 26.36666301382297
1802 2 31.32370716696569 30.73094044824662 26.36666301382296
1803 1 31.59143115984574 15.47297780456932 24.45507994532081
1804 1 31.32370716696569 33.14073300616855 24.4550799453208
1805 2 31.85915515272578 0.2150151608920209 22.54349687681864
1806 3 31.59143115984574 17.88277036249124 22.54349687681864
1807 2 31.85915515272578 2.624807718813935 20.63191380831647
1808 2 31.59143115984574 20.29256292041315 20.63191380831647
1809 5 31.85915515272578 5.034600276735849 18.72033073981431
1810 4 31.59143115984574 22.70235547833506 18.72033073981431
1811 3 31.85915515272578 7.444392834657764 16.80874767131214
1812 3 31.59143115984574 25.11214803625698 16.80874767131214
1813 1 31.85915515272579 9.854185392579678 14.89716460280998
1814 4 31.59143115984574 27.52194059417889 14.89716460280998
1815 5 31.85915515272578 12.26397795050159 12.98558153430781
1816 5 31.59143115984574 29.9317331521008 12.98558153430781
1817 3 31.85915515272579 14.67377050842351 11.07399846580565
1818 4 31.59143115984574 32.34152571002272 11.07399846580565
1819 5 31.85915515272578 17.08356306634542 9.162415397303482
1820 1 31.59143115984574 34.75131826794464 9.162415397303482
1821 5 32.12687914560583 1.825600422668116 7.250832328801317
1822 4 31.85915515272579 19.49335562426734 7.250832328801317
1823 4 32.12687914560583 4.235392980590031 5.339249260299151
1824 1 31.85915515272578 21.90314818218925 5.339249260299151
1825 2 32.12687914560583 6.645185538511944 3.427666191796986
1826 3 31.85915515272579 24.31294074011117 3.427666191796986
1827 4 32.12687914560583 9.054978096433858 1.516083123294821
1828 1 31.85915515272579 26.72273329803308 1.51608312329482
1829 4 32.12687914560583 10.12599701106581 32.56282882207137
1830 3 31.85915515272579 27.79375221266503 32.56282882207137
1831 1 32.12687914560583 12.53578956898773 30.6512457535692
1832 1 31.85915515272579 30.20354477058695 30.6512457535692
1833 4 32.12687914560583 14.94558212690965 28.73966268506704
1834 1 31.85915515272579 32.61333732850886 28.73966268506704
1835 2 32.39460313848588 -0.3123805167676582 26.82807961656487
1836 3 32.12687914560584 17.35537468483156 26.82807961656487
1837 5 32.39460313848588 2.097412041154256 24.91649654806271
1838 2 32.12687914560583 19.76516724275347 24.91649654806271
1839 3 32.39460313848588 4.507204599076171 23.00491347956054
1840 3 32.12687914560583 22.17495980067538 23.00491347956054
1841 1 32.39460313848588 6.916997156998083 21.09333041105838
1842 5 32.12687914560583 24.5847523585973 21.09333041105837
1843 3 32.39460313848588 9.326789714919999 19.18174734255621
1844 5 32.12687914560583 26.99454491651921 19.18174734255621
1845 4 32.39460313848588 11.73658227284191 17.27016427405404
1846 2 32.12687914560583 29.40433747444113 17.27016427405404
1847 3 32.39460313848588 14.14637483076383 15.35858120555188
1848 4 32.12687914560584 31.81413003236304 15.35858120555188
1849 2 32.39460313848588 16.55616738868574 13.44699813704971
1850 3 32.12687914560583 34.22392259028496 13.44699813704971
1851 1 32.66232713136593 1.298204745008438 11.53541506854755
1852 4 32.39460313848588 18.96595994660765 11.53541506854755
1853 5 32.66232713136593 3.707997302930351 9.623832000045383
1854 5 32.39460313848588 21.37575250452957 9.623832000045383
1855 2 32.66232713136593 6.117789860852266 7.712248931543218
1856 4 32.39460313848588 23.78554506245148 7.712248931543219
1857 3 32.66232713136593 8.527582418774179 5.800665863041052
1858 5 32.39460313848588 26.1953376203734 5.800665863041052
1859 1 32.66232713136593 10.93737497669609 3.889082794538887
1860 4 32.39460313848588 28.60513017829531 3.889082794538888
1861 2 32.66232713136593 13.34716753461801 1.977499726036722
1862 3 32.39460313848588 31.01492273621722 1.977499726036722
1863 3 32.66232713136593 15.75696009253992 0.06591665753455692
1864 1 32.39460313848588 33.42471529413913 0.06591665753455703
1865 4 32.93005112424597 -0.8397761944273371 31.11266235631111
1866 2 32.66232713136593 16.82797900717188 31.11266235631111
1867 2 32.93005112424598 1.570016363494577 29.20107928780894
1868 3 32.66232713136593 19.2377715650938 29.20107928780894
1869 5 32.93005112424598 3.979808921416493 27.28949621930677
1870 2 32.66232713136593 21.64756412301571 27.28949621930677
1871 2 32.93005112424598 6.389601479338406 25.37791315080461
1872 2 32.66232713136593 24.05735668093762 25.37791315080461
1873 1 32.93005112424597 8.799394037260317 23.46633008230244
1874 3 32.66232713136593 26.46714923885954 23.46633008230244
1875 2 32.93005112424598 11.20918659518223 21.55474701380028
1876 2 32.66232713136593 28.87694179678145 21.55474701380028
1877 1 32.93005112424598 13.61897915310415 19.64316394529811
1878 5 32.66232713136593 31.28673435470336 19.64316394529811
1879 1 32.93005112424598 16.02877171102606 17.73158087679595
1880 3 32.66232713136593 33.69652691262527 17.73158087679595
1881 1 33.19777511712602 0.7708090673487582 15.81999780829378
1882 4 32.93005112424598 18.43856426894797 15.81999780829378
1883 4 33.19777511712603 3.180601625270674 13.90841473979162
1884 1 32.93005112424598 20.84835682686989 13.90841473979162
1885 2 33.19777511712602 5.590394183192587 11.99683167128945
1886 3 32.93005112424598 23.25814938479181 11.99683167128945
1887 2 33.19777511712603 8.000186741114502 10.08524860278728
1888 5 32.93005112424598 25.66794194271372 10.08524860278728
1889 5 33.19777511712602 10.40997929903642 8.173665534285119
1890 2 32.93005112424598 28.07773450063564 8.173665534285119
1891 5 33.19777511712603 12.81977185695833 6.262082465782954
1892 4 32.93005112424598 30.48752705855754 6.262082465782954
1893 4 33.19777511712603 15.22956441488025 4.350499397280789
1894 2 32.93005112424598 32.89731961647946 4.350499397280789
1895 1 33.46549911000606 -0.02839822879705953 2.438916328778623
1896 3 33.19777511712603 17.63935697280216 2.438916328778624
1897 1 33.46549911000607 2.381394329124855 0.5273332602764583
1898 3 33.19777511712602 20.04914953072407 0.5273332602764589
1899 4 33.46549911000607 3.452413243756812 31.57407895905301
1900 2 33.19777511712603 21.12016844535603 31.57407895905301
1901 1 33.46549911000608 5.862205801678728 29.66249589055084
1902 2 33.19777511712603 23.52996100327794 29.66249589055084
1903 1 33.46549911000607 8.271998359600643 27.75091282204867
1904 2 33.19777511712603 25.93975356119986 27.75091282204867
1905 5 33.46549911000607 10.68179091752256 25.83932975354652
1906 2 33.19777511712604 28.34954611912177 25.83932975354651
1907 3 33.46549911000608 13.09158347544447 23.92774668504435
1908 1 33.19777511712604 30.75933867704368 23.92774668504435
1909 1 33.46549911000608 15.50137603336638 22.01616361654218
1910 5 33.19777511712604 33.1691312349656 22.01616361654218
1911 4 33.73322310288612 0.2434133896890808 20.10458054804001
1912 1 33.46549911000608 17.9111685912883 20.10458054804001
1913 5 33.73322310288612 2.653205947610994 18.19299747953785
1914 5 33.46549911000608 20.32096114921021 18.19299747953785
1915 2 33.73322310288612 5.062998505532909 16.28141441103568
1916 5 33.46549911000608 22.73075370713212 16.28141441103568
1917 1 33.73322310288613 7.472791063454823 14.36983134253352
1918 3 33.46549911000609 25.14054626505404 14.36983134253352
1919 5 33.73322310288613 9.882583621376737 12.45824827403135
1920 2 33.46549911000608 27.55033882297595 12.45824827403135
1921 2 33.73322310288613 12.29237617929865 10.54666520552919
1922 3 33.46549911000608 29.96013138089787 10.54666520552919
1923 5 33.73322310288612 14.70216873722056 8.635082137027021
1924 1 33.46549911000608 32.36992393881978 8.635082137027021
1925 2 33.73322310288613 17.11196129514248 6.723499068524856
1926 4 33.46549911000609 34.77971649674169 6.723499068524856
1927 1 34.00094709576616 1.853998651465176 4.811916000022691
1928 1 33.73322310288613 19.52175385306439 4.811916000022691
1929 1 34.00094709576617 4.263791209387089 2.900332931520526
1930 5 33.73322310288613 21.93154641098631 2.900332931520526
1931 1 34.00094709576617 6.673583767309004 0.9887498630183608
1932 5 33.73322310288613 24.34133896890822 0.9887498630183609
1933 4 34.00094709576617 7.744602681940963 32.0354955617949
1934 5 33.73322310288613 25.41235788354018 32.0354955617949
1935 3 34.00094709576617 10.15439523986288 30.12391249329274
1936 3 33.73322310288613 27.8221504414621 30.12391249329274
1937 1 34.00094709576617 12.56418779778479 28.21232942479058
1938 5 33.73322310288614 30.23194299938401 28.21232942479057
1939 1 34.00094709576618 14.9739803557067 26.30074635628841
1940 3 33.73322310288613 32.64173555730592 26.30074635628841
1941 3 34.26867108864622 -0.2839822879705982 24.38916328778625
1942 5 34.00094709576617 17.38377291362862 24.38916328778625
1943 4 34.26867108864622 2.125810269951316 22.47758021928408
1944 2 34.00094709576618 19.79356547155053 22.47758021928408
1945 3 34.26867108864622 4.53560282787323 20.56599715078191
1946 3 34.00094709576617 22.20335802947244 20.56599715078191
1947 5 34.26867108864622 6.945395385795145 18.65441408227975
1948 3 34.00094709576618 24.61315058739436 18.65441408227975
1949 4 34.26867108864622 9.355187943717057 16.74283101377758
1950 1 34.00094709576618 27.02294314531628 16.74283101377759
1951 4 34.26867108864623 11.76498050163897 14.83124794527542
1952 5 34.00094709576618 29.43273570323818 14.83124794527542
1953 4 34.26867108864622 14.17477305956089 12.91966487677326
1954 5 34.00094709576617 31.8425282611601 12.91966487677326
1955 5 34.26867108864622 16.5845656174828 11.00808180827109
1956 2 34.00094709576618 34.25232081908202 11.00808180827109
1957 4 34.53639508152627 1.326602973805497 9.096498739768926
1958 3 34.26867108864622 18.99435817540472 9.096498739768924
1959 4 34.53639508152627 3.736395531727411 7.184915671266759
1960 4 34.26867108864623 21.40415073332663 7.184915671266759
1961 2 34.53639508152627 6.146188089649326 5.273332602764594
1962 1 34.26867108864622 23.81394329124854 5.273332602764594
1963 3 34.53639508152627 8.555980647571241 3.361749534262428
1964 1 34.26867108864623 26.22373584917046 3.361749534262429
1965 2 34.53639508152627 10.96577320549316 1.450166465760263
1966 5 34.26867108864622 28.63352840709237 1.450166465760263
1967 4 34.53639508152627 12.03679212012511 32.49691216453681
1968 4 34.26867108864623 29.70454732172433 32.49691216453682
1969 2 34.53639508152627 14.44658467804703 30.58532909603464
1970 5 34.26867108864623 32.11433987964624 30.58532909603464
1971 2 34.80411907440632 -0.8113779656302771 28.67374602753248
1972 1 34.53639508152627 16.85637723596894 28.67374602753248
1973 2 34.80411907440632 1.598414592291637 26.76216295903032
1974 5 34.53639508152627 19.26616979389086 26.76216295903031
1975 4 34.80411907440632 4.008207150213551 24.85057989052815
1976 1 34.53639508152627 21.67596235181277 24.85057989052815
1977 2 34.80411907440632 6.417999708135466 22.93899682202598
1978 1 34.53639508152627 24.08575490973468 22.93899682202598
1979 4 34.80411907440632 8.827792266057381 21.02741375352382
1980 1 34.53639508152627 26.4955474676566 21.02741375352382
1981 4 34.80411907440632 11.23758482397929 19.11583068502165
1982 5 34.53639508152628 28.90534002557851 19.11583068502165
1983 1 34.80411907440632 13.64737738190121 17.20424761651948
1984 3 34.53639508152627 31.31513258350043 17.20424761651948
1985 3 34.80411907440632 16.05716993982312 15.29266454801732
1986 4 34.53639508152627 33.72492514142234 15.29266454801732
1987 2 35.07184306728637 0.7992072961458189 13.38108147951515
1988 4 34.80411907440632 18.46696249774503 13.38108147951515
1989 5 35.07184306728636 3.208999854067733 11.46949841101299
1990 3 34.80411907440632 20.87675505566695 11.46949841101299
1991 1 35.07184306728637 5.618792411989647 9.557915342510825
1992 4 34.80411907440632 23.28654761358886 9.557915342510825
1993 5 35.07184306728637 8.028584969911561 7.64633227400866
1994 3 34.80411907440632 25.69634017151078 7.646332274008661
1995 2 35.07184306728637 10.43837752783348 5.734749205506495
1996 5 34.80411907440632 28.10613272943269 5.734749205506495
1997 5 35.07184306728637 12.84817008575539 3.82316613700433
1998 2 34.80411907440632 30.51592528735461 3.82316613700433
1999 3 35.07184306728637 15.2579626436773 1.911583068502165
2000 2 34.80411907440632 32.92571784527652 1.911583068502165
