# BCC equiatomic HfMoTaTiZr; profile=compact; x=[110]; seed=20262843

1960 atoms
5 atom types

0.0 34.15325753131025 xlo xhi
0.0 34.15325753131025 ylo yhi
0.0 34.5 zlo zhi
0 0 0 xy xz yz

Masses

1 178.49 # Hf
2 95.95 # Mo
3 180.94788 # Ta
4 47.867 # Ti
5 91.224 # Zr

Atoms # atomic

1 1 0 0 0
2 4 0 0 3.45
3 2 0 0 6.9
4 1 0 0 10.35
5 2 0 0 13.8
6 1 0 0 17.25
7 5 0 0 20.7
8 4 0 0 24.15
9 5 0 0 27.6
10 5 0 0 31.05
11 4 0 2.439518395093588 15.525
12 3 0 2.439518395093588 25.875
13 4 0 2.439518395093588 29.325
14 1 0 2.439518395093588 32.775
15 4 0 2.439518395093589 1.725
16 5 0 2.439518395093589 5.175000000000001
17 4 0 2.439518395093589 8.625
18 2 0 2.439518395093589 12.075
19 1 0 2.43951839509359 18.975
20 5 0 2.43951839509359 22.425
21 2 0 4.879036790187175 27.6
22 4 0 4.879036790187175 31.05
23 1 0 4.879036790187176 13.8
24 4 0 4.879036790187178 0
25 4 0 4.879036790187178 3.45
26 5 0 4.879036790187178 6.9
27 1 0 4.879036790187178 10.35
28 3 0 4.879036790187178 17.25
29 2 0 4.879036790187178 24.15
30 3 0 4.87903679018718 20.7
31 3 0 7.318555185280764 29.325
32 2 0 7.318555185280766 12.075
33 2 0 7.318555185280766 25.875
34 3 0 7.318555185280767 1.725
35 4 0 7.318555185280767 5.175000000000001
36 3 0 7.318555185280767 8.625
37 1 0 7.318555185280767 15.525
38 2 0 7.318555185280768 18.975
39 2 0 7.318555185280768 22.425
40 3 0 7.318555185280768 32.77500000000001
41 5 0 9.758073580374353 27.6
42 3 0 9.758073580374356 0
43 3 0 9.758073580374356 3.450000000000001
44 3 0 9.758073580374356 6.9
45 5 0 9.758073580374356 10.35
46 3 0 9.758073580374356 13.8
47 5 0 9.758073580374356 17.25
48 4 0 9.758073580374356 20.7
49 2 0 9.758073580374356 24.15
50 2 0 9.758073580374356 31.05
51 3 0 12.19759197546794 1.725000000000001
52 5 0 12.19759197546794 5.175000000000001
53 3 0 12.19759197546794 8.625
54 4 0 12.19759197546794 12.075
55 5 0 12.19759197546794 18.975
56 2 0 12.19759197546794 22.425
57 2 0 12.19759197546794 25.875
58 4 0 12.19759197546794 32.77500000000001
59 5 0 12.19759197546795 15.525
60 1 0 12.19759197546795 29.325
61 3 0 14.63711037056153 6.9
62 4 0 14.63711037056153 20.7
63 5 0 14.63711037056153 24.15
64 2 0 14.63711037056153 0
65 1 0 14.63711037056153 3.45
66 3 0 14.63711037056153 10.35
67 5 0 14.63711037056153 17.25
68 3 0 14.63711037056153 31.05
69 5 0 14.63711037056154 13.8
70 4 0 14.63711037056154 27.6
71 2 0 17.07662876565512 22.425
72 3 0 17.07662876565512 5.175
73 1 0 17.07662876565512 18.975
74 2 0 17.07662876565512 32.77500000000001
75 2 0 17.07662876565512 1.725
76 4 0 17.07662876565512 8.625000000000002
77 2 0 17.07662876565512 12.075
78 1 0 17.07662876565512 15.525
79 1 0 17.07662876565512 25.875
80 1 0 17.07662876565512 29.325
81 3 0 19.51614716074871 0
82 3 0 19.51614716074871 3.449999999999999
83 1 0 19.51614716074871 6.900000000000001
84 4 0 19.51614716074871 10.35
85 2 0 19.51614716074871 13.8
86 3 0 19.51614716074871 17.25
87 4 0 19.51614716074871 20.7
88 4 0 19.51614716074871 24.15
89 4 0 19.51614716074871 27.6
90 3 0 19.51614716074871 31.05
91 5 0 21.9556655558423 1.725
92 1 0 21.9556655558423 5.175000000000001
93 3 0 21.9556655558423 8.625
94 5 0 21.9556655558423 12.075
95 3 0 21.9556655558423 15.525
96 5 0 21.9556655558423 18.975
97 1 0 21.9556655558423 22.425
98 5 0 21.9556655558423 25.875
99 2 0 21.9556655558423 29.325
100 1 0 21.9556655558423 32.77500000000001
101 4 0 24.39518395093589 0
102 1 0 24.39518395093589 3.450000000000001
103 5 0 24.39518395093589 10.35
104 3 0 24.39518395093589 13.8
105 1 0 24.39518395093589 17.25
106 2 0 24.39518395093589 24.15
107 2 0 24.39518395093589 27.6
108 1 0 24.39518395093589 6.9
109 4 0 24.39518395093589 20.7
110 2 0 24.39518395093589 31.05
111 2 0 26.83470234602947 1.725000000000001
112 4 0 26.83470234602947 12.075
113 1 0 26.83470234602947 15.525
114 1 0 26.83470234602947 25.875
115 5 0 26.83470234602948 5.175000000000001
116 3 0 26.83470234602948 8.625
117 5 0 26.83470234602948 18.975
118 4 0 26.83470234602948 22.425
119 3 0 26.83470234602948 29.325
120 5 0 26.83470234602948 32.775
121 3 0 29.27422074112306 13.8
122 3 0 29.27422074112307 0
123 3 0 29.27422074112307 3.450000000000001
124 5 0 29.27422074112307 6.9
125 5 0 29.27422074112307 10.35
126 2 0 29.27422074112307 17.25
127 5 0 29.27422074112307 20.7
128 4 0 29.27422074112307 24.15
129 4 0 29.27422074112307 31.05
130 1 0 29.27422074112307 27.6
131 2 0 31.71373913621665 5.175000000000001
132 1 0 31.71373913621665 8.625
133 1 0 31.71373913621665 12.075
134 2 0 31.71373913621665 18.975
135 2 0 31.71373913621665 22.425
136 5 0 31.71373913621665 32.77500000000001
137 3 0 31.71373913621666 1.725
138 1 0 31.71373913621666 15.525
139 3 0 31.71373913621666 25.875
140 1 0 31.71373913621666 29.325
141 5 2.439518395093589 2.439518395093588 13.8
142 3 2.439518395093589 2.439518395093588 24.15
143 4 2.439518395093589 2.439518395093588 27.6
144 3 2.439518395093589 2.439518395093588 31.05
145 2 2.439518395093589 2.439518395093589 0
146 5 2.439518395093589 2.439518395093589 3.450000000000001
147 5 2.439518395093589 2.439518395093589 6.9
148 4 2.439518395093589 2.439518395093589 10.35
149 5 2.439518395093589 2.43951839509359 17.25
150 2 2.439518395093589 2.43951839509359 20.7
151 2 2.439518395093589 4.879036790187175 25.875
152 3 2.439518395093589 4.879036790187175 29.325
153 2 2.439518395093589 4.879036790187176 12.075
154 1 2.439518395093589 4.879036790187178 1.725
155 3 2.439518395093589 4.879036790187178 5.175000000000001
156 5 2.439518395093589 4.879036790187178 8.625000000000002
157 3 2.439518395093589 4.879036790187178 15.525
158 1 2.439518395093589 4.879036790187178 22.425
159 3 2.439518395093589 4.87903679018718 18.975
160 5 2.439518395093589 4.87903679018718 32.775
161 3 2.439518395093589 7.318555185280764 27.6
162 5 2.439518395093589 7.318555185280766 10.35
163 5 2.439518395093589 7.318555185280766 24.15
164 1 2.439518395093589 7.318555185280767 0
165 5 2.439518395093589 7.318555185280767 3.450000000000001
166 3 2.439518395093589 7.318555185280767 6.9
167 1 2.439518395093589 7.318555185280767 13.8
168 4 2.439518395093589 7.318555185280768 17.25
169 4 2.439518395093589 7.318555185280768 20.7
170 2 2.439518395093589 7.318555185280768 31.05
171 3 2.439518395093589 9.758073580374353 25.875
172 2 2.439518395093589 9.758073580374356 1.725000000000001
173 2 2.439518395093589 9.758073580374356 5.175000000000001
174 1 2.439518395093589 9.758073580374356 8.625
175 1 2.439518395093589 9.758073580374356 12.075
176 5 2.439518395093589 9.758073580374356 15.525
177 4 2.439518395093589 9.758073580374356 18.975
178 5 2.439518395093589 9.758073580374356 22.425
179 4 2.439518395093589 9.758073580374356 29.325
180 5 2.439518395093589 9.758073580374356 32.775
181 2 2.439518395093589 12.19759197546794 4.787836793695988e-16
182 3 2.439518395093589 12.19759197546794 3.450000000000001
183 4 2.439518395093589 12.19759197546794 6.9
184 4 2.439518395093589 12.19759197546794 10.35
185 5 2.439518395093589 12.19759197546794 17.25
186 5 2.439518395093589 12.19759197546794 20.7
187 4 2.439518395093589 12.19759197546794 24.15
188 3 2.439518395093589 12.19759197546794 31.05
189 5 2.439518395093589 12.19759197546795 13.8
190 4 2.439518395093589 12.19759197546795 27.6
191 1 2.439518395093589 14.63711037056153 5.175000000000001
192 2 2.439518395093589 14.63711037056153 18.975
193 1 2.439518395093589 14.63711037056153 22.425
194 1 2.439518395093589 14.63711037056153 32.775
195 4 2.439518395093589 14.63711037056153 1.725
196 4 2.439518395093589 14.63711037056153 8.625000000000002
197 4 2.439518395093589 14.63711037056153 15.525
198 5 2.439518395093589 14.63711037056153 29.325
199 4 2.439518395093589 14.63711037056154 12.075
200 4 2.439518395093589 14.63711037056154 25.875
201 3 2.439518395093589 17.07662876565512 20.7
202 2 2.439518395093589 17.07662876565512 3.45
203 2 2.439518395093589 17.07662876565512 17.25
204 1 2.439518395093589 17.07662876565512 31.05
205 5 2.439518395093589 17.07662876565512 6.900000000000002
206 1 2.439518395093589 17.07662876565512 10.35
207 4 2.439518395093589 17.07662876565512 13.8
208 3 2.439518395093589 17.07662876565512 24.15
209 5 2.439518395093589 17.07662876565512 27.6
210 5 2.439518395093589 17.07662876565512 34.5
211 1 2.439518395093589 19.51614716074871 1.724999999999999
212 5 2.439518395093589 19.51614716074871 5.175000000000001
213 4 2.439518395093589 19.51614716074871 8.625000000000002
214 3 2.439518395093589 19.51614716074871 12.075
215 5 2.439518395093589 19.51614716074871 15.525
216 1 2.439518395093589 19.51614716074871 18.975
217 5 2.439518395093589 19.51614716074871 22.425
218 3 2.439518395093589 19.51614716074871 25.875
219 1 2.439518395093589 19.51614716074871 29.325
220 2 2.439518395093589 19.51614716074871 32.775
221 2 2.439518395093589 21.9556655558423 3.450000000000001
222 5 2.439518395093589 21.9556655558423 6.9
223 2 2.439518395093589 21.9556655558423 10.35
224 2 2.439518395093589 21.9556655558423 13.8
225 5 2.439518395093589 21.9556655558423 17.25
226 5 2.439518395093589 21.9556655558423 20.7
227 4 2.439518395093589 21.9556655558423 24.15
228 4 2.439518395093589 21.9556655558423 27.6
229 3 2.439518395093589 21.9556655558423 34.5
230 1 2.439518395093589 21.9556655558423 31.05
231 2 2.439518395093589 24.39518395093589 1.725000000000001
232 3 2.439518395093589 24.39518395093589 8.625000000000002
233 3 2.439518395093589 24.39518395093589 12.075
234 1 2.439518395093589 24.39518395093589 15.525
235 5 2.439518395093589 24.39518395093589 22.425
236 3 2.439518395093589 24.39518395093589 25.875
237 5 2.439518395093589 24.39518395093589 5.175000000000001
238 5 2.439518395093589 24.39518395093589 18.975
239 2 2.439518395093589 24.39518395093589 29.325
240 4 2.439518395093589 24.39518395093589 32.775
241 1 2.439518395093589 26.83470234602947 1.436351038108796e-15
242 3 2.439518395093589 26.83470234602947 10.35
243 1 2.439518395093589 26.83470234602947 13.8
244 1 2.439518395093589 26.83470234602947 24.15
245 5 2.439518395093589 26.83470234602948 3.450000000000001
246 1 2.439518395093589 26.83470234602948 6.9
247 5 2.439518395093589 26.83470234602948 17.25
248 3 2.439518395093589 26.83470234602948 20.7
249 1 2.439518395093589 26.83470234602948 27.6
250 2 2.439518395093589 26.83470234602948 31.05
251 4 2.439518395093589 29.27422074112306 12.075
252 5 2.439518395093589 29.27422074112307 1.725000000000001
253 4 2.439518395093589 29.27422074112307 5.175000000000001
254 4 2.439518395093589 29.27422074112307 8.625
255 3 2.439518395093589 29.27422074112307 15.525
256 3 2.439518395093589 29.27422074112307 18.975
257 1 2.439518395093589 29.27422074112307 22.425
258 3 2.439518395093589 29.27422074112307 29.325
259 1 2.439518395093589 29.27422074112307 32.775
260 2 2.439518395093589 29.27422074112307 25.875
261 1 2.439518395093589 31.71373913621665 3.450000000000001
262 2 2.439518395093589 31.71373913621665 6.9
263 3 2.439518395093589 31.71373913621665 10.35
264 4 2.439518395093589 31.71373913621665 17.25
265 4 2.439518395093589 31.71373913621665 20.7
266 2 2.439518395093589 31.71373913621665 31.05
267 5 2.439518395093589 31.71373913621666 13.8
268 3 2.439518395093589 31.71373913621666 24.15
269 2 2.439518395093589 31.71373913621666 27.6
270 5 2.439518395093589 31.71373913621666 34.5
271 1 2.439518395093589 34.15325753131025 1.725
272 3 2.439518395093589 34.15325753131025 5.175000000000001
273 2 2.439518395093589 34.15325753131025 8.625000000000002
274 1 2.439518395093589 34.15325753131025 12.075
275 4 2.439518395093589 34.15325753131025 15.525
276 5 2.439518395093589 34.15325753131025 18.975
277 3 2.439518395093589 34.15325753131025 22.425
278 2 2.439518395093589 34.15325753131025 25.875
279 5 2.439518395093589 34.15325753131025 29.325
280 3 2.439518395093589 34.15325753131025 32.775
281 4 4.879036790187178 2.439518395093587 12.075
282 4 4.879036790187178 2.439518395093587 22.425
283 1 4.879036790187178 2.439518395093587 25.875
284 4 4.879036790187178 2.439518395093587 29.325
285 4 4.879036790187178 2.439518395093588 1.725000000000001
286 2 4.879036790187178 2.439518395093588 5.175
287 4 4.879036790187178 2.439518395093588 8.625
288 3 4.879036790187178 2.439518395093589 15.525
289 1 4.879036790187178 2.439518395093589 18.975
290 1 4.879036790187178 2.439518395093591 32.77500000000001
291 5 4.879036790187178 4.879036790187175 24.15
292 3 4.879036790187178 4.879036790187175 27.6
293 4 4.879036790187178 4.879036790187176 10.35
294 4 4.879036790187178 4.879036790187178 0
295 1 4.879036790187178 4.879036790187178 3.45
296 5 4.879036790187178 4.879036790187178 6.900000000000001
297 2 4.879036790187178 4.879036790187178 13.8
298 2 4.879036790187178 4.879036790187178 20.7
299 3 4.879036790187178 4.87903679018718 17.25
300 3 4.879036790187178 4.87903679018718 31.05
301 3 4.879036790187178 7.318555185280764 25.875
302 3 4.879036790187178 7.318555185280766 8.624999999999998
303 1 4.879036790187178 7.318555185280766 22.425
304 2 4.879036790187178 7.318555185280767 1.725000000000001
305 3 4.879036790187178 7.318555185280767 5.175
306 2 4.879036790187178 7.318555185280767 12.075
307 4 4.879036790187178 7.318555185280768 15.525
308 1 4.879036790187178 7.318555185280768 18.975
309 2 4.879036790187178 7.318555185280768 29.325
310 1 4.879036790187178 7.318555185280768 32.77500000000001
311 3 4.879036790187178 9.758073580374353 24.15
312 3 4.879036790187178 9.758073580374356 4.787836793695988e-16
313 5 4.879036790187178 9.758073580374356 3.45
314 1 4.879036790187178 9.758073580374356 6.899999999999999
315 2 4.879036790187178 9.758073580374356 10.35
316 3 4.879036790187178 9.758073580374356 13.8
317 2 4.879036790187178 9.758073580374356 17.25
318 4 4.879036790187178 9.758073580374356 20.7
319 5 4.879036790187178 9.758073580374356 27.6
320 4 4.879036790187178 9.758073580374356 31.05
321 5 4.879036790187178 12.19759197546794 1.725000000000001
322 2 4.879036790187178 12.19759197546794 5.175
323 4 4.879036790187178 12.19759197546794 8.625
324 2 4.879036790187178 12.19759197546794 15.525
325 4 4.879036790187178 12.19759197546794 18.975
326 5 4.879036790187178 12.19759197546794 22.425
327 2 4.879036790187178 12.19759197546794 29.32500000000001
328 5 4.879036790187178 12.19759197546794 32.77500000000001
329 5 4.879036790187178 12.19759197546795 12.075
330 1 4.879036790187178 12.19759197546795 25.875
331 1 4.879036790187178 14.63711037056153 3.45
332 1 4.879036790187178 14.63711037056153 17.25
333 1 4.879036790187178 14.63711037056153 20.7
334 1 4.879036790187178 14.63711037056153 31.05
335 5 4.879036790187178 14.63711037056153 0
336 4 4.879036790187178 14.63711037056153 6.900000000000001
337 2 4.879036790187178 14.63711037056153 13.8
338 3 4.879036790187178 14.63711037056153 27.6
339 1 4.879036790187178 14.63711037056154 10.35
340 3 4.879036790187178 14.63711037056154 24.15
341 5 4.879036790187178 17.07662876565512 18.975
342 5 4.879036790187178 17.07662876565512 1.725
343 3 4.879036790187178 17.07662876565512 15.525
344 1 4.879036790187178 17.07662876565512 29.325
345 4 4.879036790187178 17.07662876565512 5.175000000000002
346 1 4.879036790187178 17.07662876565512 8.625
347 5 4.879036790187178 17.07662876565512 12.075
348 2 4.879036790187178 17.07662876565512 22.425
349 1 4.879036790187178 17.07662876565512 25.875
350 3 4.879036790187178 17.07662876565512 32.77500000000001
351 3 4.879036790187178 19.51614716074871 3.450000000000001
352 3 4.879036790187178 19.51614716074871 6.900000000000001
353 5 4.879036790187178 19.51614716074871 10.35
354 4 4.879036790187178 19.51614716074871 13.8
355 2 4.879036790187178 19.51614716074871 17.25
356 4 4.879036790187178 19.51614716074871 20.7
357 1 4.879036790187178 19.51614716074871 24.15
358 5 4.879036790187178 19.51614716074871 27.6
359 2 4.879036790187178 19.51614716074871 31.05
360 1 4.879036790187178 19.51614716074871 34.5
361 1 4.879036790187178 21.9556655558423 1.725000000000001
362 1 4.879036790187178 21.9556655558423 5.175
363 4 4.879036790187178 21.9556655558423 8.625
364 2 4.879036790187178 21.9556655558423 12.075
365 2 4.879036790187178 21.9556655558423 15.525
366 2 4.879036790187178 21.9556655558423 18.975
367 1 4.879036790187178 21.9556655558423 22.425
368 1 4.879036790187178 21.9556655558423 25.875
369 4 4.879036790187178 21.9556655558423 32.77500000000001
370 1 4.879036790187178 21.9556655558423 29.325
371 1 4.879036790187178 24.39518395093589 9.575673587391975e-16
372 1 4.879036790187178 24.39518395093589 6.900000000000001
373 3 4.879036790187178 24.39518395093589 10.35
374 5 4.879036790187178 24.39518395093589 13.8
375 1 4.879036790187178 24.39518395093589 20.7
376 5 4.879036790187178 24.39518395093589 24.15
377 1 4.879036790187178 24.39518395093589 3.45
378 2 4.879036790187178 24.39518395093589 17.25
379 5 4.879036790187178 24.39518395093589 27.6
380 1 4.879036790187178 24.39518395093589 31.05
381 1 4.879036790187178 26.83470234602947 8.624999999999998
382 2 4.879036790187178 26.83470234602947 12.075
383 2 4.879036790187178 26.83470234602947 22.425
384 2 4.879036790187178 26.83470234602948 1.725000000000001
385 3 4.879036790187178 26.83470234602948 5.175
386 4 4.879036790187178 26.83470234602948 15.525
387 5 4.879036790187178 26.83470234602948 18.975
388 2 4.879036790187178 26.83470234602948 25.875
389 2 4.879036790187178 26.83470234602948 29.325
390 1 4.879036790187178 26.83470234602948 32.77500000000001
391 5 4.879036790187178 29.27422074112306 10.35
392 1 4.879036790187178 29.27422074112307 9.575673587391975e-16
393 2 4.879036790187178 29.27422074112307 3.45
394 4 4.879036790187178 29.27422074112307 6.899999999999999
395 5 4.879036790187178 29.27422074112307 13.8
396 3 4.879036790187178 29.27422074112307 17.25
397 3 4.879036790187178 29.27422074112307 20.7
398 3 4.879036790187178 29.27422074112307 27.6
399 2 4.879036790187178 29.27422074112307 31.05
400 5 4.879036790187178 29.27422074112307 24.15
401 2 4.879036790187178 31.71373913621665 1.725000000000001
402 4 4.879036790187178 31.71373913621665 5.175
403 5 4.879036790187178 31.71373913621665 8.624999999999998
404 2 4.879036790187178 31.71373913621665 15.525
405 5 4.879036790187178 31.71373913621665 18.975
406 3 4.879036790187178 31.71373913621665 29.325
407 2 4.879036790187178 31.71373913621665 32.77500000000001
408 2 4.879036790187178 31.71373913621666 12.075
409 4 4.879036790187178 31.71373913621666 22.425
410 3 4.879036790187178 31.71373913621666 25.875
411 2 4.879036790187178 34.15325753131025 0
412 4 4.879036790187178 34.15325753131025 3.45
413 1 4.879036790187178 34.15325753131025 6.900000000000001
414 5 4.879036790187178 34.15325753131025 10.35
415 4 4.879036790187178 34.15325753131025 13.8
416 3 4.879036790187178 34.15325753131025 17.25
417 3 4.879036790187178 34.15325753131025 20.7
418 4 4.879036790187178 34.15325753131025 24.15
419 2 4.879036790187178 34.15325753131025 27.6
420 4 4.879036790187178 34.15325753131025 31.05
421 4 7.318555185280767 2.439518395093587 10.35
422 5 7.318555185280767 2.439518395093587 20.7
423 4 7.318555185280767 2.439518395093587 24.15
424 1 7.318555185280767 2.439518395093587 27.6
425 2 7.318555185280767 2.439518395093588 0
426 1 7.318555185280767 2.439518395093588 3.449999999999999
427 2 7.318555185280767 2.439518395093588 6.9
428 3 7.318555185280767 2.439518395093589 13.8
429 3 7.318555185280767 2.439518395093589 17.25
430 3 7.318555185280767 2.439518395093591 31.05
431 3 7.318555185280767 4.879036790187175 22.425
432 2 7.318555185280767 4.879036790187175 25.875
433 1 7.318555185280767 4.879036790187176 8.625
434 1 7.318555185280767 4.879036790187178 1.725
435 2 7.318555185280767 4.879036790187178 5.175000000000001
436 4 7.318555185280767 4.879036790187178 12.075
437 1 7.318555185280767 4.879036790187178 18.975
438 3 7.318555185280767 4.87903679018718 15.525
439 4 7.318555185280767 4.87903679018718 29.325
440 5 7.318555185280767 4.87903679018718 32.77500000000001
441 2 7.318555185280767 7.318555185280764 24.15
442 5 7.318555185280767 7.318555185280766 6.899999999999999
443 1 7.318555185280767 7.318555185280766 20.7
444 2 7.318555185280767 7.318555185280767 0
445 2 7.318555185280767 7.318555185280767 3.449999999999999
446 2 7.318555185280767 7.318555185280767 10.35
447 1 7.318555185280767 7.318555185280768 13.8
448 1 7.318555185280767 7.318555185280768 17.25
449 2 7.318555185280767 7.318555185280768 27.6
450 3 7.318555185280767 7.318555185280768 31.05
451 2 7.318555185280767 9.758073580374353 22.425
452 4 7.318555185280767 9.758073580374356 1.725
453 5 7.318555185280767 9.758073580374356 5.174999999999999
454 2 7.318555185280767 9.758073580374356 8.625
455 1 7.318555185280767 9.758073580374356 12.075
456 4 7.318555185280767 9.758073580374356 15.525
457 3 7.318555185280767 9.758073580374356 18.975
458 5 7.318555185280767 9.758073580374356 25.875
459 3 7.318555185280767 9.758073580374356 29.325
460 2 7.318555185280767 9.758073580374356 32.77500000000001
461 4 7.318555185280767 12.19759197546794 0
462 2 7.318555185280767 12.19759197546794 3.449999999999999
463 2 7.318555185280767 12.19759197546794 6.9
464 3 7.318555185280767 12.19759197546794 13.8
465 1 7.318555185280767 12.19759197546794 17.25
466 4 7.318555185280767 12.19759197546794 20.7
467 3 7.318555185280767 12.19759197546794 27.6
468 3 7.318555185280767 12.19759197546794 31.05
469 1 7.318555185280767 12.19759197546795 10.35
470 3 7.318555185280767 12.19759197546795 24.15
471 1 7.318555185280767 14.63711037056153 1.725
472 2 7.318555185280767 14.63711037056153 15.525
473 1 7.318555185280767 14.63711037056153 18.975
474 2 7.318555185280767 14.63711037056153 29.325
475 4 7.318555185280767 14.63711037056153 5.175000000000001
476 4 7.318555185280767 14.63711037056153 12.075
477 3 7.318555185280767 14.63711037056153 25.875
478 2 7.318555185280767 14.63711037056154 8.625
479 5 7.318555185280767 14.63711037056154 22.425
480 4 7.318555185280767 14.63711037056154 32.77500000000001
481 2 7.318555185280767 17.07662876565512 17.25
482 3 7.318555185280767 17.07662876565512 13.8
483 5 7.318555185280767 17.07662876565512 27.6
484 4 7.318555185280767 17.07662876565512 34.5
485 2 7.318555185280767 17.07662876565512 3.450000000000001
486 1 7.318555185280767 17.07662876565512 6.9
487 5 7.318555185280767 17.07662876565512 10.35
488 2 7.318555185280767 17.07662876565512 20.7
489 2 7.318555185280767 17.07662876565512 24.15
490 4 7.318555185280767 17.07662876565512 31.05
491 5 7.318555185280767 19.51614716074871 1.725000000000001
492 4 7.318555185280767 19.51614716074871 5.175000000000001
493 4 7.318555185280767 19.51614716074871 8.625
494 4 7.318555185280767 19.51614716074871 12.075
495 1 7.318555185280767 19.51614716074871 15.525
496 4 7.318555185280767 19.51614716074871 18.975
497 3 7.318555185280767 19.51614716074871 22.425
498 3 7.318555185280767 19.51614716074871 25.875
499 4 7.318555185280767 19.51614716074871 29.325
500 2 7.318555185280767 19.51614716074871 32.77500000000001
501 5 7.318555185280767 21.9556655558423 0
502 5 7.318555185280767 21.9556655558423 3.449999999999999
503 2 7.318555185280767 21.9556655558423 6.9
504 4 7.318555185280767 21.9556655558423 10.35
505 2 7.318555185280767 21.9556655558423 13.8
506 3 7.318555185280767 21.9556655558423 17.25
507 1 7.318555185280767 21.9556655558423 20.7
508 3 7.318555185280767 21.9556655558423 24.15
509 2 7.318555185280767 21.9556655558423 31.05
510 1 7.318555185280767 21.9556655558423 27.6
511 3 7.318555185280767 24.39518395093589 5.175000000000001
512 2 7.318555185280767 24.39518395093589 8.625
513 5 7.318555185280767 24.39518395093589 12.075
514 5 7.318555185280767 24.39518395093589 18.975
515 5 7.318555185280767 24.39518395093589 22.425
516 2 7.318555185280767 24.39518395093589 32.77500000000001
517 4 7.318555185280767 24.39518395093589 1.725
518 4 7.318555185280767 24.39518395093589 15.525
519 1 7.318555185280767 24.39518395093589 25.875
520 3 7.318555185280767 24.39518395093589 29.325
521 4 7.318555185280767 26.83470234602947 6.899999999999999
522 2 7.318555185280767 26.83470234602947 10.35
523 4 7.318555185280767 26.83470234602947 20.7
524 5 7.318555185280767 26.83470234602948 0
525 4 7.318555185280767 26.83470234602948 3.449999999999999
526 3 7.318555185280767 26.83470234602948 13.8
527 3 7.318555185280767 26.83470234602948 17.25
528 3 7.318555185280767 26.83470234602948 24.15
529 4 7.318555185280767 26.83470234602948 27.6
530 5 7.318555185280767 26.83470234602948 31.05
531 5 7.318555185280767 29.27422074112306 8.625
532 5 7.318555185280767 29.27422074112307 1.725
533 4 7.318555185280767 29.27422074112307 5.174999999999999
534 2 7.318555185280767 29.27422074112307 12.075
535 5 7.318555185280767 29.27422074112307 15.525
536 2 7.318555185280767 29.27422074112307 18.975
537 3 7.318555185280767 29.27422074112307 25.875
538 3 7.318555185280767 29.27422074112307 29.325
539 2 7.318555185280767 29.27422074112307 32.77500000000001
540 3 7.318555185280767 29.27422074112307 22.425
541 5 7.318555185280767 31.71373913621665 0
542 3 7.318555185280767 31.71373913621665 3.449999999999999
543 1 7.318555185280767 31.71373913621665 6.899999999999999
544 2 7.318555185280767 31.71373913621665 13.8
545 4 7.318555185280767 31.71373913621665 17.25
546 3 7.318555185280767 31.71373913621665 27.6
547 3 7.318555185280767 31.71373913621665 31.05
548 4 7.318555185280767 31.71373913621666 10.35
549 4 7.318555185280767 31.71373913621666 20.7
550 1 7.318555185280767 31.71373913621666 24.15
551 3 7.318555185280767 34.15325753131025 1.725
552 4 7.318555185280767 34.15325753131025 5.175000000000001
553 1 7.318555185280767 34.15325753131025 8.625
554 2 7.318555185280767 34.15325753131025 12.075
555 4 7.318555185280767 34.15325753131025 15.525
556 2 7.318555185280767 34.15325753131025 18.975
557 2 7.318555185280767 34.15325753131025 22.425
558 5 7.318555185280767 34.15325753131025 25.875
559 2 7.318555185280767 34.15325753131025 29.325
560 1 7.318555185280767 34.15325753131025 32.77500000000001
561 2 9.758073580374356 2.439518395093587 8.625
562 4 9.758073580374356 2.439518395093587 18.975
563 2 9.758073580374356 2.439518395093587 22.425
564 5 9.758073580374356 2.439518395093587 25.875
565 3 9.758073580374356 2.439518395093587 32.77500000000001
566 1 9.758073580374356 2.439518395093588 1.725
567 1 9.758073580374356 2.439518395093588 5.175000000000001
568 2 9.758073580374356 2.439518395093589 12.075
569 1 9.758073580374356 2.439518395093589 15.525
570 1 9.758073580374356 2.439518395093591 29.325
571 1 9.758073580374356 4.879036790187175 20.7
572 1 9.758073580374356 4.879036790187175 24.15
573 4 9.758073580374356 4.879036790187175 6.9
574 5 9.758073580374356 4.879036790187176 0
575 5 9.758073580374356 4.879036790187176 3.450000000000001
576 2 9.758073580374356 4.879036790187176 10.35
577 5 9.758073580374356 4.879036790187176 17.25
578 1 9.758073580374356 4.879036790187179 13.8
579 3 9.758073580374356 4.879036790187179 27.6
580 2 9.758073580374356 4.879036790187179 31.05
581 1 9.758073580374356 7.318555185280763 22.425
582 2 9.758073580374356 7.318555185280765 5.174999999999999
583 4 9.758073580374356 7.318555185280765 18.975
584 1 9.758073580374356 7.318555185280766 1.725
585 4 9.758073580374356 7.318555185280766 8.625000000000002
586 5 9.758073580374356 7.318555185280767 12.075
587 3 9.758073580374356 7.318555185280767 15.525
588 4 9.758073580374356 7.318555185280767 25.875
589 2 9.758073580374356 7.318555185280767 29.325
590 1 9.758073580374356 7.318555185280767 32.775
591 4 9.758073580374356 9.758073580374353 20.7
592 5 9.758073580374356 9.758073580374356 0
593 5 9.758073580374356 9.758073580374356 3.449999999999999
594 5 9.758073580374356 9.758073580374356 6.9
595 1 9.758073580374356 9.758073580374356 10.35
596 1 9.758073580374356 9.758073580374356 13.8
597 5 9.758073580374356 9.758073580374356 17.25
598 5 9.758073580374356 9.758073580374356 24.15000000000001
599 3 9.758073580374356 9.758073580374356 27.6
600 3 9.758073580374356 9.758073580374356 31.05
601 2 9.758073580374356 12.19759197546794 1.725
602 5 9.758073580374356 12.19759197546794 5.175000000000001
603 1 9.758073580374356 12.19759197546794 12.075
604 3 9.758073580374356 12.19759197546794 15.525
605 2 9.758073580374356 12.19759197546794 18.975
606 1 9.758073580374356 12.19759197546794 25.87500000000001
607 4 9.758073580374356 12.19759197546794 29.325
608 2 9.758073580374356 12.19759197546795 8.625000000000002
609 2 9.758073580374356 12.19759197546795 22.425
610 1 9.758073580374356 12.19759197546795 32.77500000000001
611 3 9.758073580374356 14.63711037056153 0
612 5 9.758073580374356 14.63711037056153 13.8
613 4 9.758073580374356 14.63711037056153 17.25
614 2 9.758073580374356 14.63711037056153 27.6
615 2 9.758073580374356 14.63711037056153 3.450000000000001
616 3 9.758073580374356 14.63711037056153 10.35
617 5 9.758073580374356 14.63711037056153 24.15000000000001
618 1 9.758073580374356 14.63711037056154 6.9
619 4 9.758073580374356 14.63711037056154 20.7
620 5 9.758073580374356 14.63711037056154 31.05
621 3 9.758073580374356 17.07662876565512 15.525
622 1 9.758073580374356 17.07662876565512 12.075
623 3 9.758073580374356 17.07662876565512 25.875
624 4 9.758073580374356 17.07662876565512 1.725000000000001
625 4 9.758073580374356 17.07662876565512 5.175000000000001
626 4 9.758073580374356 17.07662876565512 8.625
627 4 9.758073580374356 17.07662876565512 18.975
628 1 9.758073580374356 17.07662876565512 22.425
629 1 9.758073580374356 17.07662876565512 29.325
630 3 9.758073580374356 17.07662876565512 32.775
631 3 9.758073580374356 19.51614716074871 9.575673587391975e-16
632 5 9.758073580374356 19.51614716074871 3.450000000000001
633 3 9.758073580374356 19.51614716074871 6.9
634 4 9.758073580374356 19.51614716074871 10.35
635 2 9.758073580374356 19.51614716074871 13.8
636 4 9.758073580374356 19.51614716074871 17.25
637 1 9.758073580374356 19.51614716074871 20.7
638 3 9.758073580374356 19.51614716074871 24.15
639 1 9.758073580374356 19.51614716074871 27.6
640 4 9.758073580374356 19.51614716074871 31.05
641 4 9.758073580374356 21.9556655558423 1.725
642 1 9.758073580374356 21.9556655558423 5.175000000000001
643 4 9.758073580374356 21.9556655558423 8.625
644 2 9.758073580374356 21.9556655558423 12.075
645 4 9.758073580374356 21.9556655558423 15.525
646 5 9.758073580374356 21.9556655558423 18.975
647 3 9.758073580374356 21.9556655558423 22.425
648 4 9.758073580374356 21.9556655558423 29.325
649 2 9.758073580374356 21.9556655558423 32.77500000000001
650 3 9.758073580374356 21.9556655558423 25.875
651 3 9.758073580374356 24.39518395093589 3.450000000000001
652 5 9.758073580374356 24.39518395093589 6.9
653 5 9.758073580374356 24.39518395093589 10.35
654 2 9.758073580374356 24.39518395093589 17.25
655 5 9.758073580374356 24.39518395093589 20.7
656 3 9.758073580374356 24.39518395093589 31.05
657 4 9.758073580374356 24.39518395093589 0
658 1 9.758073580374356 24.39518395093589 13.8
659 2 9.758073580374356 24.39518395093589 24.15000000000001
660 2 9.758073580374356 24.39518395093589 27.6
661 3 9.758073580374356 26.83470234602947 5.174999999999999
662 4 9.758073580374356 26.83470234602947 8.625
663 3 9.758073580374356 26.83470234602947 18.975
664 3 9.758073580374356 26.83470234602947 32.77500000000001
665 1 9.758073580374356 26.83470234602948 1.725
666 4 9.758073580374356 26.83470234602948 12.075
667 3 9.758073580374356 26.83470234602948 15.525
668 3 9.758073580374356 26.83470234602948 22.425
669 5 9.758073580374356 26.83470234602948 25.875
670 1 9.758073580374356 26.83470234602948 29.325
671 2 9.758073580374356 29.27422074112306 6.9
672 2 9.758073580374356 29.27422074112307 0
673 2 9.758073580374356 29.27422074112307 3.449999999999999
674 1 9.758073580374356 29.27422074112307 10.35
675 3 9.758073580374356 29.27422074112307 13.8
676 1 9.758073580374356 29.27422074112307 17.25
677 5 9.758073580374356 29.27422074112307 24.15
678 4 9.758073580374356 29.27422074112307 27.6
679 5 9.758073580374356 29.27422074112307 31.05
680 3 9.758073580374356 29.27422074112307 20.7
681 5 9.758073580374356 31.71373913621665 1.725
682 5 9.758073580374356 31.71373913621665 5.174999999999999
683 5 9.758073580374356 31.71373913621665 12.075
684 1 9.758073580374356 31.71373913621665 15.525
685 3 9.758073580374356 31.71373913621665 25.875
686 4 9.758073580374356 31.71373913621665 29.325
687 4 9.758073580374356 31.71373913621665 32.775
688 1 9.758073580374356 31.71373913621666 8.625000000000002
689 2 9.758073580374356 31.71373913621666 18.975
690 5 9.758073580374356 31.71373913621666 22.425
691 5 9.758073580374356 34.15325753131025 0
692 1 9.758073580374356 34.15325753131025 3.450000000000001
693 1 9.758073580374356 34.15325753131025 6.9
694 1 9.758073580374356 34.15325753131025 10.35
695 5 9.758073580374356 34.15325753131025 13.8
696 2 9.758073580374356 34.15325753131025 17.25
697 3 9.758073580374356 34.15325753131025 20.7
698 1 9.758073580374356 34.15325753131025 24.15
699 1 9.758073580374356 34.15325753131025 27.6
700 2 9.758073580374356 34.15325753131025 31.05
701 1 12.19759197546794 2.439518395093587 6.9
702 2 12.19759197546794 2.439518395093587 17.25
703 4 12.19759197546794 2.439518395093587 20.7
704 4 12.19759197546794 2.439518395093587 24.15
705 3 12.19759197546794 2.439518395093587 31.05
706 3 12.19759197546794 2.439518395093588 0
707 3 12.19759197546794 2.439518395093588 3.450000000000001
708 1 12.19759197546794 2.439518395093589 10.35
709 3 12.19759197546794 2.439518395093589 13.8
710 1 12.19759197546794 2.439518395093591 27.6
711 3 12.19759197546794 4.879036790187175 18.975
712 5 12.19759197546794 4.879036790187175 22.425
713 1 12.19759197546794 4.879036790187175 32.77500000000001
714 2 12.19759197546794 4.879036790187175 5.175000000000001
715 4 12.19759197546794 4.879036790187176 1.725000000000001
716 3 12.19759197546794 4.879036790187176 8.625
717 4 12.19759197546794 4.879036790187176 15.525
718 4 12.19759197546794 4.879036790187179 12.075
719 3 12.19759197546794 4.879036790187179 25.875
720 1 12.19759197546794 4.879036790187179 29.325
721 2 12.19759197546794 7.318555185280763 20.7
722 1 12.19759197546794 7.318555185280765 3.449999999999999
723 4 12.19759197546794 7.318555185280765 17.25
724 4 12.19759197546794 7.318555185280766 0
725 2 12.19759197546794 7.318555185280766 6.900000000000002
726 5 12.19759197546794 7.318555185280767 10.35
727 3 12.19759197546794 7.318555185280767 13.8
728 5 12.19759197546794 7.318555185280767 24.15
729 5 12.19759197546794 7.318555185280767 27.6
730 2 12.19759197546794 7.318555185280767 31.05
731 5 12.19759197546794 9.758073580374353 18.975
732 3 12.19759197546794 9.758073580374356 1.725
733 2 12.19759197546794 9.758073580374356 5.175000000000001
734 3 12.19759197546794 9.758073580374356 8.625
735 3 12.19759197546794 9.758073580374356 12.075
736 4 12.19759197546794 9.758073580374356 15.525
737 3 12.19759197546794 9.758073580374356 22.425
738 2 12.19759197546794 9.758073580374356 25.875
739 1 12.19759197546794 9.758073580374356 29.325
740 5 12.19759197546794 9.75807358037436 32.77500000000001
741 1 12.19759197546794 12.19759197546794 0
742 3 12.19759197546794 12.19759197546794 3.450000000000001
743 4 12.19759197546794 12.19759197546794 10.35
744 3 12.19759197546794 12.19759197546794 13.8
745 1 12.19759197546794 12.19759197546794 17.25
746 1 12.19759197546794 12.19759197546794 24.15000000000001
747 1 12.19759197546794 12.19759197546794 27.6
748 4 12.19759197546794 12.19759197546795 6.900000000000002
749 5 12.19759197546794 12.19759197546795 20.7
750 1 12.19759197546794 12.19759197546795 31.05
751 4 12.19759197546794 14.63711037056153 12.075
752 2 12.19759197546794 14.63711037056153 15.525
753 1 12.19759197546794 14.63711037056153 25.875
754 3 12.19759197546794 14.63711037056153 1.725000000000001
755 1 12.19759197546794 14.63711037056153 8.625
756 1 12.19759197546794 14.63711037056153 22.425
757 2 12.19759197546794 14.63711037056154 5.175000000000001
758 5 12.19759197546794 14.63711037056154 18.975
759 2 12.19759197546794 14.63711037056154 29.325
760 3 12.19759197546794 14.63711037056154 32.775
761 1 12.19759197546794 17.07662876565512 13.8
762 1 12.19759197546794 17.07662876565512 10.35
763 4 12.19759197546794 17.07662876565512 24.15
764 3 12.19759197546794 17.07662876565512 1.915134717478395e-15
765 1 12.19759197546794 17.07662876565512 3.450000000000001
766 5 12.19759197546794 17.07662876565512 6.9
767 2 12.19759197546794 17.07662876565512 17.25
768 4 12.19759197546794 17.07662876565512 20.7
769 2 12.19759197546794 17.07662876565512 27.6
770 5 12.19759197546794 17.07662876565512 31.05
771 2 12.19759197546794 19.51614716074871 1.725000000000001
772 5 12.19759197546794 19.51614716074871 5.175000000000001
773 5 12.19759197546794 19.51614716074871 8.625
774 3 12.19759197546794 19.51614716074871 12.075
775 2 12.19759197546794 19.51614716074871 15.525
776 2 12.19759197546794 19.51614716074871 18.975
777 3 12.19759197546794 19.51614716074871 22.425
778 5 12.19759197546794 19.51614716074871 25.875
779 5 12.19759197546794 19.51614716074871 29.325
780 2 12.19759197546794 19.51614716074871 32.77500000000001
781 2 12.19759197546794 21.9556655558423 0
782 4 12.19759197546794 21.9556655558423 3.450000000000001
783 1 12.19759197546794 21.9556655558423 6.9
784 5 12.19759197546794 21.9556655558423 10.35
785 3 12.19759197546794 21.9556655558423 13.8
786 1 12.19759197546794 21.9556655558423 17.25
787 1 12.19759197546794 21.9556655558423 20.7
788 3 12.19759197546794 21.9556655558423 27.6
789 1 12.19759197546794 21.9556655558423 31.05
790 4 12.19759197546794 21.9556655558423 24.15
791 4 12.19759197546794 24.39518395093589 1.725000000000001
792 3 12.19759197546794 24.39518395093589 5.175000000000001
793 4 12.19759197546794 24.39518395093589 8.625
794 3 12.19759197546794 24.39518395093589 15.525
795 2 12.19759197546794 24.39518395093589 18.975
796 2 12.19759197546794 24.39518395093589 29.325
797 3 12.19759197546794 24.39518395093589 32.77500000000001
798 1 12.19759197546794 24.39518395093589 12.075
799 1 12.19759197546794 24.39518395093589 22.425
800 4 12.19759197546794 24.39518395093589 25.875
801 4 12.19759197546794 26.83470234602947 3.449999999999999
802 1 12.19759197546794 26.83470234602947 6.9
803 2 12.19759197546794 26.83470234602947 17.25
804 3 12.19759197546794 26.83470234602947 31.05
805 1 12.19759197546794 26.83470234602948 0
806 4 12.19759197546794 26.83470234602948 10.35
807 3 12.19759197546794 26.83470234602948 13.8
808 3 12.19759197546794 26.83470234602948 20.7
809 1 12.19759197546794 26.83470234602948 24.15
810 3 12.19759197546794 26.83470234602948 27.6
811 3 12.19759197546794 29.27422074112306 5.175000000000001
812 2 12.19759197546794 29.27422074112306 32.77500000000001
813 1 12.19759197546794 29.27422074112307 1.725
814 2 12.19759197546794 29.27422074112307 8.625
815 4 12.19759197546794 29.27422074112307 12.075
816 2 12.19759197546794 29.27422074112307 15.525
817 3 12.19759197546794 29.27422074112307 22.425
818 4 12.19759197546794 29.27422074112307 25.875
819 4 12.19759197546794 29.27422074112307 29.325
820 3 12.19759197546794 29.27422074112307 18.975
821 2 12.19759197546794 31.71373913621665 0
822 3 12.19759197546794 31.71373913621665 3.449999999999999
823 2 12.19759197546794 31.71373913621665 10.35
824 5 12.19759197546794 31.71373913621665 13.8
825 4 12.19759197546794 31.71373913621665 24.15
826 2 12.19759197546794 31.71373913621665 27.6
827 3 12.19759197546794 31.71373913621665 31.05
828 5 12.19759197546794 31.71373913621666 6.900000000000002
829 4 12.19759197546794 31.71373913621666 17.25
830 3 12.19759197546794 31.71373913621666 20.7
831 3 12.19759197546794 34.15325753131025 1.725000000000001
832 1 12.19759197546794 34.15325753131025 5.175000000000001
833 3 12.19759197546794 34.15325753131025 8.625
834 2 12.19759197546794 34.15325753131025 12.075
835 1 12.19759197546794 34.15325753131025 15.525
836 2 12.19759197546794 34.15325753131025 18.975
837 3 12.19759197546794 34.15325753131025 22.425
838 2 12.19759197546794 34.15325753131025 25.875
839 5 12.19759197546794 34.15325753131025 29.325
840 5 12.19759197546794 34.15325753131025 32.77500000000001
841 1 14.63711037056153 2.439518395093587 5.174999999999999
842 4 14.63711037056153 2.439518395093587 15.525
843 2 14.63711037056153 2.439518395093587 18.975
844 4 14.63711037056153 2.439518395093587 22.425
845 3 14.63711037056153 2.439518395093587 29.325
846 2 14.63711037056153 2.439518395093587 32.775
847 4 14.63711037056153 2.439518395093588 1.725
848 2 14.63711037056153 2.439518395093589 8.625
849 3 14.63711037056153 2.439518395093589 12.075
850 2 14.63711037056153 2.439518395093591 25.875
851 4 14.63711037056153 4.879036790187175 17.25
852 1 14.63711037056153 4.879036790187175 20.7
853 2 14.63711037056153 4.879036790187175 31.05
854 4 14.63711037056153 4.879036790187175 3.449999999999999
855 4 14.63711037056153 4.879036790187176 0
856 1 14.63711037056153 4.879036790187176 6.899999999999999
857 1 14.63711037056153 4.879036790187176 13.8
858 1 14.63711037056153 4.879036790187179 10.35
859 2 14.63711037056153 4.879036790187179 24.15
860 4 14.63711037056153 4.879036790187179 27.6
861 2 14.63711037056153 7.318555185280763 18.975
862 1 14.63711037056153 7.318555185280765 1.724999999999998
863 3 14.63711037056153 7.318555185280765 15.525
864 1 14.63711037056153 7.318555185280766 5.175000000000001
865 5 14.63711037056153 7.318555185280767 8.625
866 4 14.63711037056153 7.318555185280767 12.075
867 3 14.63711037056153 7.318555185280767 22.425
868 4 14.63711037056153 7.318555185280767 25.875
869 1 14.63711037056153 7.318555185280767 29.325
870 5 14.63711037056153 7.318555185280767 32.775
871 4 14.63711037056153 9.758073580374353 17.25
872 5 14.63711037056153 9.758073580374356 3.449999999999999
873 4 14.63711037056153 9.758073580374356 6.899999999999999
874 1 14.63711037056153 9.758073580374356 10.35
875 2 14.63711037056153 9.758073580374356 13.8
876 4 14.63711037056153 9.758073580374356 20.7
877 5 14.63711037056153 9.758073580374356 24.15
878 4 14.63711037056153 9.758073580374356 27.6
879 3 14.63711037056153 9.758073580374356 34.5
880 4 14.63711037056153 9.75807358037436 31.05
881 2 14.63711037056153 12.19759197546794 1.725
882 3 14.63711037056153 12.19759197546794 8.625
883 5 14.63711037056153 12.19759197546794 12.075
884 5 14.63711037056153 12.19759197546794 15.525
885 3 14.63711037056153 12.19759197546794 22.425
886 3 14.63711037056153 12.19759197546794 25.875
887 1 14.63711037056153 12.19759197546795 5.175000000000001
888 2 14.63711037056153 12.19759197546795 18.975
889 3 14.63711037056153 12.19759197546795 29.325
890 2 14.63711037056153 12.19759197546795 32.775
891 4 14.63711037056153 14.63711037056153 10.35
892 3 14.63711037056153 14.63711037056153 13.8
893 2 14.63711037056153 14.63711037056153 24.15
894 1 14.63711037056153 14.63711037056153 0
895 5 14.63711037056153 14.63711037056153 6.899999999999999
896 2 14.63711037056153 14.63711037056153 20.7
897 1 14.63711037056153 14.63711037056154 3.449999999999999
898 3 14.63711037056153 14.63711037056154 17.25
899 5 14.63711037056153 14.63711037056154 27.6
900 5 14.63711037056153 14.63711037056154 31.05
901 4 14.63711037056153 17.07662876565512 12.075
902 4 14.63711037056153 17.07662876565512 8.625
903 1 14.63711037056153 17.07662876565512 22.425
904 1 14.63711037056153 17.07662876565512 1.725
905 1 14.63711037056153 17.07662876565512 5.174999999999999
906 3 14.63711037056153 17.07662876565512 15.525
907 3 14.63711037056153 17.07662876565512 18.975
908 1 14.63711037056153 17.07662876565512 25.875
909 4 14.63711037056153 17.07662876565512 29.325
910 2 14.63711037056153 17.07662876565512 32.775
911 1 14.63711037056153 19.51614716074871 0
912 5 14.63711037056153 19.51614716074871 3.449999999999999
913 2 14.63711037056153 19.51614716074871 6.899999999999999
914 1 14.63711037056153 19.51614716074871 10.35
915 5 14.63711037056153 19.51614716074871 13.8
916 2 14.63711037056153 19.51614716074871 17.25
917 5 14.63711037056153 19.51614716074871 20.7
918 5 14.63711037056153 19.51614716074871 24.15
919 1 14.63711037056153 19.51614716074871 27.6
920 4 14.63711037056153 19.51614716074871 31.05
921 4 14.63711037056153 21.9556655558423 1.725
922 1 14.63711037056153 21.9556655558423 5.174999999999999
923 3 14.63711037056153 21.9556655558423 8.625
924 5 14.63711037056153 21.9556655558423 12.075
925 2 14.63711037056153 21.9556655558423 15.525
926 1 14.63711037056153 21.9556655558423 18.975
927 2 14.63711037056153 21.9556655558423 25.875
928 5 14.63711037056153 21.9556655558423 29.325
929 4 14.63711037056153 21.9556655558423 32.775
930 3 14.63711037056153 21.9556655558423 22.425
931 2 14.63711037056153 24.39518395093589 0
932 3 14.63711037056153 24.39518395093589 3.449999999999999
933 5 14.63711037056153 24.39518395093589 6.899999999999999
934 4 14.63711037056153 24.39518395093589 13.8
935 5 14.63711037056153 24.39518395093589 17.25
936 5 14.63711037056153 24.39518395093589 27.6
937 1 14.63711037056153 24.39518395093589 31.05
938 1 14.63711037056153 24.39518395093589 10.35
939 4 14.63711037056153 24.39518395093589 20.7
940 4 14.63711037056153 24.39518395093589 24.15
941 5 14.63711037056153 26.83470234602947 1.724999999999998
942 3 14.63711037056153 26.83470234602947 5.174999999999999
943 1 14.63711037056153 26.83470234602947 15.525
944 5 14.63711037056153 26.83470234602947 29.325
945 2 14.63711037056153 26.83470234602947 32.775
946 1 14.63711037056153 26.83470234602948 8.625
947 2 14.63711037056153 26.83470234602948 12.075
948 5 14.63711037056153 26.83470234602948 18.975
949 1 14.63711037056153 26.83470234602948 22.425
950 4 14.63711037056153 26.83470234602948 25.875
951 4 14.63711037056153 29.27422074112306 3.449999999999999
952 4 14.63711037056153 29.27422074112306 31.05
953 4 14.63711037056153 29.27422074112307 6.899999999999999
954 1 14.63711037056153 29.27422074112307 10.35
955 3 14.63711037056153 29.27422074112307 13.8
956 1 14.63711037056153 29.27422074112307 20.7
957 5 14.63711037056153 29.27422074112307 24.15
958 2 14.63711037056153 29.27422074112307 27.6
959 3 14.63711037056153 29.27422074112307 34.5
960 1 14.63711037056153 29.27422074112307 17.25
961 1 14.63711037056153 31.71373913621665 32.775
962 1 14.63711037056153 31.71373913621665 1.724999999999998
963 4 14.63711037056153 31.71373913621665 8.625
964 2 14.63711037056153 31.71373913621665 12.075
965 1 14.63711037056153 31.71373913621665 22.425
966 5 14.63711037056153 31.71373913621665 25.875
967 1 14.63711037056153 31.71373913621665 29.325
968 3 14.63711037056153 31.71373913621666 5.175000000000001
969 3 14.63711037056153 31.71373913621666 15.525
970 5 14.63711037056153 31.71373913621666 18.975
971 3 14.63711037056153 34.15325753131025 0
972 1 14.63711037056153 34.15325753131025 3.449999999999999
973 5 14.63711037056153 34.15325753131025 6.899999999999999
974 1 14.63711037056153 34.15325753131025 10.35
975 3 14.63711037056153 34.15325753131025 13.8
976 2 14.63711037056153 34.15325753131025 17.25
977 3 14.63711037056153 34.15325753131025 20.7
978 2 14.63711037056153 34.15325753131025 24.15
979 3 14.63711037056153 34.15325753131025 27.6
980 5 14.63711037056153 34.15325753131025 31.05
981 4 17.07662876565512 2.439518395093587 3.449999999999999
982 5 17.07662876565512 2.439518395093587 13.8
983 1 17.07662876565512 2.439518395093587 17.25
984 3 17.07662876565512 2.439518395093587 20.7
985 2 17.07662876565512 2.439518395093587 27.6
986 1 17.07662876565512 2.439518395093587 31.05
987 4 17.07662876565512 2.439518395093588 0
988 4 17.07662876565512 2.439518395093589 6.9
989 1 17.07662876565512 2.439518395093589 10.35
990 5 17.07662876565512 2.439518395093591 24.15
991 3 17.07662876565512 4.879036790187175 15.525
992 3 17.07662876565512 4.879036790187175 18.975
993 5 17.07662876565512 4.879036790187175 29.325
994 2 17.07662876565512 4.879036790187175 1.725
995 5 17.07662876565512 4.879036790187176 5.174999999999999
996 4 17.07662876565512 4.879036790187176 12.075
997 3 17.07662876565512 4.879036790187179 8.625000000000002
998 5 17.07662876565512 4.879036790187179 22.425
999 1 17.07662876565512 4.879036790187179 25.875
1000 1 17.07662876565512 4.879036790187179 32.77500000000001
1001 4 17.07662876565512 7.318555185280763 17.25
1002 3 17.07662876565512 7.318555185280765 13.8
1003 2 17.07662876565512 7.318555185280765 34.5
1004 4 17.07662876565512 7.318555185280766 3.450000000000001
1005 1 17.07662876565512 7.318555185280767 6.9
1006 1 17.07662876565512 7.318555185280767 10.35
1007 1 17.07662876565512 7.318555185280767 20.7
1008 4 17.07662876565512 7.318555185280767 24.15
1009 5 17.07662876565512 7.318555185280767 27.59999999999999
1010 5 17.07662876565512 7.318555185280767 31.05
1011 4 17.07662876565512 9.758073580374351 15.525
1012 3 17.07662876565512 9.758073580374353 1.725
1013 3 17.07662876565512 9.758073580374353 5.174999999999999
1014 2 17.07662876565512 9.758073580374353 8.625000000000002
1015 4 17.07662876565512 9.758073580374353 12.075
1016 3 17.07662876565512 9.758073580374353 18.975
1017 4 17.07662876565512 9.758073580374353 22.425
1018 3 17.07662876565512 9.758073580374353 25.875
1019 5 17.07662876565512 9.758073580374353 32.775
1020 3 17.07662876565512 9.758073580374358 29.325
1021 3 17.07662876565512 12.19759197546794 0
1022 2 17.07662876565512 12.19759197546794 6.9
1023 4 17.07662876565512 12.19759197546794 10.35
1024 3 17.07662876565512 12.19759197546794 13.8
1025 5 17.07662876565512 12.19759197546794 20.7
1026 2 17.07662876565512 12.19759197546794 24.15
1027 4 17.07662876565512 12.19759197546794 3.450000000000001
1028 1 17.07662876565512 12.19759197546794 17.25
1029 4 17.07662876565512 12.19759197546795 27.6
1030 4 17.07662876565512 12.19759197546795 31.05
1031 3 17.07662876565512 14.63711037056153 8.625000000000002
1032 2 17.07662876565512 14.63711037056153 12.075
1033 1 17.07662876565512 14.63711037056153 22.425
1034 5 17.07662876565512 14.63711037056153 5.174999999999999
1035 2 17.07662876565512 14.63711037056153 18.975
1036 3 17.07662876565512 14.63711037056153 1.725
1037 1 17.07662876565512 14.63711037056153 15.525
1038 5 17.07662876565512 14.63711037056153 25.875
1039 4 17.07662876565512 14.63711037056153 29.325
1040 5 17.07662876565512 14.63711037056153 32.775
1041 1 17.07662876565512 17.07662876565512 10.35
1042 2 17.07662876565512 17.07662876565512 6.9
1043 5 17.07662876565512 17.07662876565512 20.7
1044 1 17.07662876565512 17.07662876565512 0
1045 4 17.07662876565512 17.07662876565512 3.449999999999999
1046 5 17.07662876565512 17.07662876565512 13.8
1047 4 17.07662876565512 17.07662876565512 17.25
1048 2 17.07662876565512 17.07662876565512 24.15
1049 3 17.07662876565512 17.07662876565512 27.59999999999999
1050 2 17.07662876565512 17.07662876565512 31.05
1051 2 17.07662876565512 19.51614716074871 1.725
1052 2 17.07662876565512 19.51614716074871 5.174999999999999
1053 5 17.07662876565512 19.51614716074871 8.624999999999998
1054 4 17.07662876565512 19.51614716074871 12.075
1055 3 17.07662876565512 19.51614716074871 15.525
1056 4 17.07662876565512 19.51614716074871 18.975
1057 5 17.07662876565512 19.51614716074871 22.425
1058 5 17.07662876565512 19.51614716074871 25.875
1059 4 17.07662876565512 19.51614716074871 29.325
1060 4 17.07662876565512 19.51614716074871 32.775
1061 4 17.07662876565512 21.9556655558423 0
1062 5 17.07662876565512 21.9556655558423 3.449999999999999
1063 3 17.07662876565512 21.9556655558423 6.9
1064 2 17.07662876565512 21.9556655558423 10.35
1065 2 17.07662876565512 21.9556655558423 13.8
1066 5 17.07662876565512 21.9556655558423 17.25
1067 3 17.07662876565512 21.9556655558423 24.15
1068 5 17.07662876565512 21.9556655558423 27.6
1069 2 17.07662876565512 21.9556655558423 31.05
1070 1 17.07662876565512 21.9556655558423 20.7
1071 3 17.07662876565512 24.39518395093589 1.725
1072 1 17.07662876565512 24.39518395093589 5.174999999999999
1073 5 17.07662876565512 24.39518395093589 12.075
1074 2 17.07662876565512 24.39518395093589 15.525
1075 3 17.07662876565512 24.39518395093589 25.875
1076 5 17.07662876565512 24.39518395093589 29.325
1077 5 17.07662876565512 24.39518395093589 32.775
1078 1 17.07662876565512 24.39518395093589 8.625000000000002
1079 2 17.07662876565512 24.39518395093589 18.975
1080 5 17.07662876565512 24.39518395093589 22.425
1081 4 17.07662876565512 26.83470234602947 3.449999999999999
1082 2 17.07662876565512 26.83470234602947 13.8
1083 1 17.07662876565512 26.83470234602947 27.6
1084 1 17.07662876565512 26.83470234602947 31.05
1085 5 17.07662876565512 26.83470234602947 34.5
1086 1 17.07662876565512 26.83470234602948 6.9
1087 1 17.07662876565512 26.83470234602948 10.35
1088 4 17.07662876565512 26.83470234602948 17.25
1089 4 17.07662876565512 26.83470234602948 20.7
1090 2 17.07662876565512 26.83470234602948 24.15
1091 5 17.07662876565512 29.27422074112306 1.725
1092 4 17.07662876565512 29.27422074112306 29.325
1093 1 17.07662876565512 29.27422074112306 32.775
1094 1 17.07662876565512 29.27422074112307 5.174999999999999
1095 4 17.07662876565512 29.27422074112307 8.625000000000002
1096 5 17.07662876565512 29.27422074112307 12.075
1097 5 17.07662876565512 29.27422074112307 18.975
1098 3 17.07662876565512 29.27422074112307 22.425
1099 5 17.07662876565512 29.27422074112307 25.875
1100 2 17.07662876565512 29.27422074112307 15.525
1101 1 17.07662876565512 31.71373913621665 31.05
1102 3 17.07662876565512 31.71373913621665 6.9
1103 1 17.07662876565512 31.71373913621665 10.35
1104 1 17.07662876565512 31.71373913621665 20.7
1105 1 17.07662876565512 31.71373913621665 24.15
1106 3 17.07662876565512 31.71373913621665 27.59999999999999
1107 5 17.07662876565512 31.71373913621665 34.5
1108 5 17.07662876565512 31.71373913621666 3.450000000000001
1109 2 17.07662876565512 31.71373913621666 13.8
1110 1 17.07662876565512 31.71373913621666 17.25
1111 1 17.07662876565512 34.15325753131025 1.725
1112 2 17.07662876565512 34.15325753131025 5.174999999999999
1113 5 17.07662876565512 34.15325753131025 8.625000000000002
1114 3 17.07662876565512 34.15325753131025 12.075
1115 1 17.07662876565512 34.15325753131025 15.525
1116 5 17.07662876565512 34.15325753131025 18.975
1117 5 17.07662876565512 34.15325753131025 22.425
1118 3 17.07662876565512 34.15325753131025 25.875
1119 1 17.07662876565512 34.15325753131025 29.325
1120 4 17.07662876565512 34.15325753131025 32.775
1121 5 19.51614716074871 2.439518395093586 1.725
1122 3 19.51614716074871 2.439518395093586 12.075
1123 3 19.51614716074871 2.439518395093586 15.525
1124 3 19.51614716074871 2.439518395093586 18.975
1125 1 19.51614716074871 2.439518395093586 25.875
1126 2 19.51614716074871 2.439518395093586 29.325
1127 5 19.51614716074871 2.439518395093588 5.175000000000001
1128 4 19.51614716074871 2.439518395093588 8.625000000000004
1129 4 19.51614716074871 2.43951839509359 22.425
1130 3 19.51614716074871 2.43951839509359 32.77500000000001
1131 2 19.51614716074871 4.879036790187175 13.8
1132 4 19.51614716074871 4.879036790187175 17.25
1133 5 19.51614716074871 4.879036790187175 27.6
1134 2 19.51614716074871 4.879036790187175 0
1135 1 19.51614716074871 4.879036790187176 3.449999999999999
1136 1 19.51614716074871 4.879036790187176 10.35
1137 3 19.51614716074871 4.879036790187179 6.900000000000002
1138 3 19.51614716074871 4.879036790187179 20.7
1139 5 19.51614716074871 4.879036790187179 24.15
1140 2 19.51614716074871 4.879036790187179 31.05000000000001
1141 4 19.51614716074871 7.318555185280763 15.525
1142 4 19.51614716074871 7.318555185280765 12.075
1143 3 19.51614716074871 7.318555185280766 1.725000000000001
1144 5 19.51614716074871 7.318555185280767 5.175000000000001
1145 3 19.51614716074871 7.318555185280767 8.625
1146 5 19.51614716074871 7.318555185280767 18.975
1147 2 19.51614716074871 7.318555185280767 22.425
1148 5 19.51614716074871 7.318555185280767 25.875
1149 1 19.51614716074871 7.318555185280767 29.325
1150 1 19.51614716074871 7.318555185280767 32.77500000000001
1151 1 19.51614716074871 9.758073580374351 13.8
1152 1 19.51614716074871 9.758073580374353 0
1153 2 19.51614716074871 9.758073580374353 3.449999999999999
1154 5 19.51614716074871 9.758073580374353 6.900000000000002
1155 4 19.51614716074871 9.758073580374353 10.35
1156 2 19.51614716074871 9.758073580374353 17.25
1157 2 19.51614716074871 9.758073580374353 20.7
1158 1 19.51614716074871 9.758073580374353 24.15
1159 5 19.51614716074871 9.758073580374353 31.05
1160 3 19.51614716074871 9.758073580374358 27.6
1161 2 19.51614716074871 12.19759197546794 5.175000000000001
1162 4 19.51614716074871 12.19759197546794 8.625
1163 5 19.51614716074871 12.19759197546794 12.075
1164 5 19.51614716074871 12.19759197546794 18.975
1165 5 19.51614716074871 12.19759197546794 22.425
1166 1 19.51614716074871 12.19759197546794 32.77500000000001
1167 5 19.51614716074871 12.19759197546794 1.725000000000001
1168 5 19.51614716074871 12.19759197546794 15.525
1169 5 19.51614716074871 12.19759197546795 25.875
1170 1 19.51614716074871 12.19759197546795 29.325
1171 5 19.51614716074871 14.63711037056153 6.900000000000002
1172 3 19.51614716074871 14.63711037056153 10.35
1173 2 19.51614716074871 14.63711037056153 20.7
1174 2 19.51614716074871 14.63711037056153 3.449999999999999
1175 1 19.51614716074871 14.63711037056153 17.25
1176 1 19.51614716074871 14.63711037056153 0
1177 5 19.51614716074871 14.63711037056153 13.8
1178 3 19.51614716074871 14.63711037056153 24.15
1179 2 19.51614716074871 14.63711037056153 27.6
1180 1 19.51614716074871 14.63711037056153 31.05
1181 3 19.51614716074871 17.07662876565512 8.625
1182 4 19.51614716074871 17.07662876565512 5.175000000000001
1183 2 19.51614716074871 17.07662876565512 18.975
1184 2 19.51614716074871 17.07662876565512 1.725
1185 5 19.51614716074871 17.07662876565512 12.075
1186 3 19.51614716074871 17.07662876565512 15.525
1187 3 19.51614716074871 17.07662876565512 22.425
1188 3 19.51614716074871 17.07662876565512 25.875
1189 5 19.51614716074871 17.07662876565512 29.325
1190 4 19.51614716074871 17.07662876565512 32.77500000000001
1191 4 19.51614716074871 19.51614716074871 0
1192 2 19.51614716074871 19.51614716074871 3.449999999999999
1193 4 19.51614716074871 19.51614716074871 6.899999999999999
1194 4 19.51614716074871 19.51614716074871 10.35
1195 1 19.51614716074871 19.51614716074871 13.8
1196 5 19.51614716074871 19.51614716074871 17.25
1197 1 19.51614716074871 19.51614716074871 20.7
1198 5 19.51614716074871 19.51614716074871 24.15
1199 2 19.51614716074871 19.51614716074871 27.6
1200 2 19.51614716074871 19.51614716074871 31.05
1201 1 19.51614716074871 21.9556655558423 1.725
1202 2 19.51614716074871 21.9556655558423 5.175000000000001
1203 5 19.51614716074871 21.9556655558423 8.625
1204 5 19.51614716074871 21.9556655558423 12.075
1205 2 19.51614716074871 21.9556655558423 15.525
1206 3 19.51614716074871 21.9556655558423 22.425
1207 2 19.51614716074871 21.9556655558423 25.875
1208 1 19.51614716074871 21.9556655558423 29.325
1209 5 19.51614716074871 21.9556655558423 32.77500000000001
1210 4 19.51614716074871 21.9556655558423 18.975
1211 2 19.51614716074871 24.39518395093589 0
1212 3 19.51614716074871 24.39518395093589 3.449999999999999
1213 5 19.51614716074871 24.39518395093589 10.35
1214 2 19.51614716074871 24.39518395093589 13.8
1215 4 19.51614716074871 24.39518395093589 24.15
1216 3 19.51614716074871 24.39518395093589 27.6
1217 4 19.51614716074871 24.39518395093589 31.05
1218 3 19.51614716074871 24.39518395093589 6.900000000000002
1219 5 19.51614716074871 24.39518395093589 17.25
1220 2 19.51614716074871 24.39518395093589 20.7
1221 1 19.51614716074871 26.83470234602947 1.725
1222 4 19.51614716074871 26.83470234602947 12.075
1223 3 19.51614716074871 26.83470234602947 25.875
1224 5 19.51614716074871 26.83470234602947 29.325
1225 2 19.51614716074871 26.83470234602947 32.77500000000001
1226 1 19.51614716074871 26.83470234602948 5.175000000000001
1227 5 19.51614716074871 26.83470234602948 8.625000000000004
1228 1 19.51614716074871 26.83470234602948 15.525
1229 5 19.51614716074871 26.83470234602948 18.975
1230 4 19.51614716074871 26.83470234602948 22.425
1231 2 19.51614716074871 29.27422074112306 0
1232 3 19.51614716074871 29.27422074112306 27.6
1233 1 19.51614716074871 29.27422074112306 31.05
1234 2 19.51614716074871 29.27422074112307 3.449999999999999
1235 3 19.51614716074871 29.27422074112307 6.900000000000002
1236 1 19.51614716074871 29.27422074112307 10.35
1237 1 19.51614716074871 29.27422074112307 17.25
1238 3 19.51614716074871 29.27422074112307 20.7
1239 3 19.51614716074871 29.27422074112307 24.15
1240 4 19.51614716074871 29.27422074112307 13.8
1241 5 19.51614716074871 31.71373913621665 29.325
1242 5 19.51614716074871 31.71373913621665 32.77500000000001
1243 2 19.51614716074871 31.71373913621665 5.175000000000001
1244 4 19.51614716074871 31.71373913621665 8.625
1245 3 19.51614716074871 31.71373913621665 18.975
1246 2 19.51614716074871 31.71373913621665 22.425
1247 4 19.51614716074871 31.71373913621665 25.875
1248 2 19.51614716074871 31.71373913621666 1.725000000000001
1249 2 19.51614716074871 31.71373913621666 12.075
1250 5 19.51614716074871 31.71373913621666 15.525
1251 2 19.51614716074871 34.15325753131025 0
1252 1 19.51614716074871 34.15325753131025 3.449999999999999
1253 3 19.51614716074871 34.15325753131025 6.900000000000002
1254 1 19.51614716074871 34.15325753131025 10.35
1255 4 19.51614716074871 34.15325753131025 13.8
1256 3 19.51614716074871 34.15325753131025 17.25
1257 2 19.51614716074871 34.15325753131025 20.7
1258 5 19.51614716074871 34.15325753131025 24.15
1259 4 19.51614716074871 34.15325753131025 27.6
1260 5 19.51614716074871 34.15325753131025 31.05
1261 1 21.9556655558423 2.439518395093586 0
1262 1 21.9556655558423 2.439518395093586 10.35
1263 5 21.9556655558423 2.439518395093586 13.8
1264 3 21.9556655558423 2.439518395093586 17.25
1265 4 21.9556655558423 2.439518395093586 24.15000000000001
1266 4 21.9556655558423 2.439518395093586 27.6
1267 4 21.9556655558423 2.439518395093588 3.450000000000001
1268 5 21.9556655558423 2.439518395093588 6.900000000000004
1269 1 21.9556655558423 2.43951839509359 20.7
1270 2 21.9556655558423 2.43951839509359 31.05
1271 4 21.9556655558423 4.879036790187175 12.075
1272 4 21.9556655558423 4.879036790187175 15.525
1273 3 21.9556655558423 4.879036790187175 25.87500000000001
1274 5 21.9556655558423 4.879036790187176 1.725
1275 2 21.9556655558423 4.879036790187176 8.625000000000002
1276 3 21.9556655558423 4.879036790187179 5.175000000000002
1277 5 21.9556655558423 4.879036790187179 18.975
1278 3 21.9556655558423 4.879036790187179 22.425
1279 2 21.9556655558423 4.879036790187179 29.32500000000001
1280 5 21.9556655558423 4.879036790187179 32.775
1281 1 21.9556655558423 7.318555185280763 13.8
1282 1 21.9556655558423 7.318555185280765 10.35
1283 5 21.9556655558423 7.318555185280766 1.915134717478395e-15
1284 1 21.9556655558423 7.318555185280767 3.450000000000001
1285 5 21.9556655558423 7.318555185280767 6.9
1286 3 21.9556655558423 7.318555185280767 17.25
1287 1 21.9556655558423 7.318555185280767 20.7
1288 5 21.9556655558423 7.318555185280767 24.15
1289 2 21.9556655558423 7.318555185280767 27.6
1290 3 21.9556655558423 7.318555185280767 31.05
1291 2 21.9556655558423 9.758073580374351 12.075
1292 1 21.9556655558423 9.758073580374353 1.725
1293 2 21.9556655558423 9.758073580374353 5.175000000000002
1294 1 21.9556655558423 9.758073580374353 8.624999999999998
1295 2 21.9556655558423 9.758073580374353 15.525
1296 5 21.9556655558423 9.758073580374353 18.975
1297 4 21.9556655558423 9.758073580374353 22.425
1298 5 21.9556655558423 9.758073580374353 29.325
1299 2 21.9556655558423 9.758073580374353 32.77500000000001
1300 3 21.9556655558423 9.758073580374358 25.87500000000001
1301 3 21.9556655558423 12.19759197546794 3.450000000000001
1302 1 21.9556655558423 12.19759197546794 6.9
1303 2 21.9556655558423 12.19759197546794 10.35
1304 3 21.9556655558423 12.19759197546794 17.25000000000001
1305 1 21.9556655558423 12.19759197546794 20.7
1306 5 21.9556655558423 12.19759197546794 31.05
1307 3 21.9556655558423 12.19759197546794 1.915134717478395e-15
1308 3 21.9556655558423 12.19759197546794 13.8
1309 4 21.9556655558423 12.19759197546795 24.15000000000001
1310 5 21.9556655558423 12.19759197546795 27.6
1311 2 21.9556655558423 14.63711037056153 5.175000000000002
1312 1 21.9556655558423 14.63711037056153 8.624999999999998
1313 1 21.9556655558423 14.63711037056153 18.975
1314 3 21.9556655558423 14.63711037056153 32.77500000000001
1315 4 21.9556655558423 14.63711037056153 1.725
1316 2 21.9556655558423 14.63711037056153 15.525
1317 5 21.9556655558423 14.63711037056153 12.075
1318 3 21.9556655558423 14.63711037056153 22.425
1319 4 21.9556655558423 14.63711037056153 25.875
1320 4 21.9556655558423 14.63711037056153 29.325
1321 5 21.9556655558423 17.07662876565512 6.9
1322 5 21.9556655558423 17.07662876565512 3.450000000000001
1323 4 21.9556655558423 17.07662876565512 17.25
1324 4 21.9556655558423 17.07662876565512 0
1325 4 21.9556655558423 17.07662876565512 10.35
1326 2 21.9556655558423 17.07662876565512 13.8
1327 2 21.9556655558423 17.07662876565512 20.7
1328 1 21.9556655558423 17.07662876565512 24.15
1329 5 21.9556655558423 17.07662876565512 27.6
1330 3 21.9556655558423 17.07662876565512 31.05
1331 4 21.9556655558423 19.51614716074871 1.725
1332 2 21.9556655558423 19.51614716074871 5.174999999999999
1333 1 21.9556655558423 19.51614716074871 8.625000000000002
1334 3 21.9556655558423 19.51614716074871 12.075
1335 3 21.9556655558423 19.51614716074871 15.525
1336 5 21.9556655558423 19.51614716074871 18.975
1337 4 21.9556655558423 19.51614716074871 22.425
1338 1 21.9556655558423 19.51614716074871 25.87500000000001
1339 5 21.9556655558423 19.51614716074871 29.325
1340 3 21.9556655558423 19.51614716074871 32.775
1341 2 21.9556655558423 21.9556655558423 0
1342 1 21.9556655558423 21.9556655558423 3.450000000000001
1343 4 21.9556655558423 21.9556655558423 6.9
1344 2 21.9556655558423 21.9556655558423 10.35
1345 5 21.9556655558423 21.9556655558423 13.8
1346 2 21.9556655558423 21.9556655558423 20.7
1347 4 21.9556655558423 21.9556655558423 24.15000000000001
1348 3 21.9556655558423 21.9556655558423 27.6
1349 2 21.9556655558423 21.9556655558423 31.05
1350 2 21.9556655558423 21.9556655558423 17.25
1351 1 21.9556655558423 24.39518395093589 1.725
1352 3 21.9556655558423 24.39518395093589 8.625000000000002
1353 3 21.9556655558423 24.39518395093589 12.075
1354 3 21.9556655558423 24.39518395093589 22.425
1355 2 21.9556655558423 24.39518395093589 25.87500000000001
1356 2 21.9556655558423 24.39518395093589 29.325
1357 1 21.9556655558423 24.39518395093589 32.77500000000001
1358 2 21.9556655558423 24.39518395093589 5.175000000000002
1359 5 21.9556655558423 24.39518395093589 15.525
1360 5 21.9556655558423 24.39518395093589 18.975
1361 3 21.9556655558423 26.83470234602947 0
1362 5 21.9556655558423 26.83470234602947 10.35
1363 5 21.9556655558423 26.83470234602947 24.15000000000001
1364 5 21.9556655558423 26.83470234602947 27.6
1365 5 21.9556655558423 26.83470234602947 31.05
1366 2 21.9556655558423 26.83470234602948 3.450000000000001
1367 5 21.9556655558423 26.83470234602948 6.900000000000004
1368 5 21.9556655558423 26.83470234602948 13.8
1369 4 21.9556655558423 26.83470234602948 17.25
1370 1 21.9556655558423 26.83470234602948 20.7
1371 4 21.9556655558423 29.27422074112306 25.87500000000001
1372 4 21.9556655558423 29.27422074112306 29.325
1373 3 21.9556655558423 29.27422074112306 32.775
1374 1 21.9556655558423 29.27422074112307 1.725
1375 3 21.9556655558423 29.27422074112307 5.175000000000002
1376 4 21.9556655558423 29.27422074112307 8.625000000000002
1377 5 21.9556655558423 29.27422074112307 15.525
1378 3 21.9556655558423 29.27422074112307 18.975
1379 1 21.9556655558423 29.27422074112307 22.425
1380 2 21.9556655558423 29.27422074112307 12.075
1381 5 21.9556655558423 31.71373913621665 27.6
1382 1 21.9556655558423 31.71373913621665 31.05
1383 3 21.9556655558423 31.71373913621665 3.450000000000001
1384 2 21.9556655558423 31.71373913621665 6.9
1385 2 21.9556655558423 31.71373913621665 17.25
1386 5 21.9556655558423 31.71373913621665 20.7
1387 5 21.9556655558423 31.71373913621665 24.15
1388 4 21.9556655558423 31.71373913621666 1.915134717478395e-15
1389 5 21.9556655558423 31.71373913621666 10.35
1390 1 21.9556655558423 31.71373913621666 13.8
1391 4 21.9556655558423 34.15325753131025 1.725
1392 3 21.9556655558423 34.15325753131025 5.175000000000002
1393 5 21.9556655558423 34.15325753131025 8.625000000000002
1394 2 21.9556655558423 34.15325753131025 12.075
1395 1 21.9556655558423 34.15325753131025 15.525
1396 2 21.9556655558423 34.15325753131025 18.975
1397 2 21.9556655558423 34.15325753131025 22.425
1398 1 21.9556655558423 34.15325753131025 25.87500000000001
1399 1 21.9556655558423 34.15325753131025 29.325
1400 1 21.9556655558423 34.15325753131025 32.77500000000001
1401 3 24.39518395093589 2.439518395093586 8.625
1402 4 24.39518395093589 2.439518395093586 12.075
1403 1 24.39518395093589 2.439518395093586 15.525
1404 4 24.39518395093589 2.439518395093586 22.425
1405 3 24.39518395093589 2.439518395093586 25.875
1406 1 24.39518395093589 2.439518395093586 32.77500000000001
1407 5 24.39518395093589 2.439518395093588 1.725000000000001
1408 5 24.39518395093589 2.439518395093588 5.175000000000004
1409 3 24.39518395093589 2.43951839509359 18.975
1410 4 24.39518395093589 2.43951839509359 29.325
1411 3 24.39518395093589 4.879036790187174 10.35
1412 1 24.39518395093589 4.879036790187174 13.8
1413 1 24.39518395093589 4.879036790187174 24.15000000000001
1414 3 24.39518395093589 4.879036790187175 0
1415 3 24.39518395093589 4.879036790187175 6.900000000000002
1416 4 24.39518395093589 4.879036790187178 3.450000000000003
1417 5 24.39518395093589 4.879036790187178 17.25
1418 5 24.39518395093589 4.879036790187178 20.7
1419 1 24.39518395093589 4.879036790187178 27.60000000000001
1420 4 24.39518395093589 4.879036790187178 31.05
1421 4 24.39518395093589 7.318555185280761 12.075
1422 4 24.39518395093589 7.318555185280764 8.625
1423 2 24.39518395093589 7.318555185280766 1.725000000000001
1424 5 24.39518395093589 7.318555185280766 5.175000000000001
1425 2 24.39518395093589 7.318555185280766 15.525
1426 4 24.39518395093589 7.318555185280766 18.975
1427 3 24.39518395093589 7.318555185280766 22.425
1428 2 24.39518395093589 7.318555185280766 25.875
1429 2 24.39518395093589 7.318555185280766 29.325
1430 2 24.39518395093589 7.318555185280766 32.77500000000001
1431 1 24.39518395093589 9.758073580374351 10.35
1432 5 24.39518395093589 9.758073580374353 0
1433 1 24.39518395093589 9.758073580374353 3.450000000000003
1434 5 24.39518395093589 9.758073580374353 6.899999999999999
1435 3 24.39518395093589 9.758073580374353 13.8
1436 3 24.39518395093589 9.758073580374353 17.25
1437 4 24.39518395093589 9.758073580374353 20.7
1438 3 24.39518395093589 9.758073580374353 27.6
1439 5 24.39518395093589 9.758073580374353 31.05
1440 4 24.39518395093589 9.758073580374358 24.15000000000001
1441 2 24.39518395093589 12.19759197546794 1.725000000000001
1442 5 24.39518395093589 12.19759197546794 5.175000000000001
1443 4 24.39518395093589 12.19759197546794 8.625
1444 1 24.39518395093589 12.19759197546794 15.52500000000001
1445 2 24.39518395093589 12.19759197546794 18.975
1446 2 24.39518395093589 12.19759197546794 29.325
1447 2 24.39518395093589 12.19759197546794 32.77500000000001
1448 5 24.39518395093589 12.19759197546794 12.075
1449 5 24.39518395093589 12.19759197546795 22.425
1450 4 24.39518395093589 12.19759197546795 25.875
1451 5 24.39518395093589 14.63711037056153 3.450000000000003
1452 2 24.39518395093589 14.63711037056153 6.899999999999999
1453 4 24.39518395093589 14.63711037056153 17.25
1454 2 24.39518395093589 14.63711037056153 31.05
1455 4 24.39518395093589 14.63711037056153 0
1456 1 24.39518395093589 14.63711037056153 13.8
1457 1 24.39518395093589 14.63711037056153 10.35
1458 1 24.39518395093589 14.63711037056153 20.7
1459 3 24.39518395093589 14.63711037056153 24.15
1460 2 24.39518395093589 14.63711037056153 27.6
1461 5 24.39518395093589 17.07662876565512 5.175000000000001
1462 2 24.39518395093589 17.07662876565512 32.77500000000001
1463 4 24.39518395093589 17.07662876565512 1.725000000000001
1464 3 24.39518395093589 17.07662876565512 15.525
1465 1 24.39518395093589 17.07662876565512 8.625
1466 2 24.39518395093589 17.07662876565512 12.075
1467 3 24.39518395093589 17.07662876565512 18.975
1468 2 24.39518395093589 17.07662876565512 22.425
1469 1 24.39518395093589 17.07662876565512 25.875
1470 2 24.39518395093589 17.07662876565512 29.325
1471 5 24.39518395093589 19.51614716074871 0
1472 5 24.39518395093589 19.51614716074871 3.449999999999999
1473 1 24.39518395093589 19.51614716074871 6.900000000000002
1474 4 24.39518395093589 19.51614716074871 10.35
1475 3 24.39518395093589 19.51614716074871 13.8
1476 3 24.39518395093589 19.51614716074871 17.25
1477 1 24.39518395093589 19.51614716074871 20.7
1478 1 24.39518395093589 19.51614716074871 24.15000000000001
1479 1 24.39518395093589 19.51614716074871 27.6
1480 1 24.39518395093589 19.51614716074871 31.05
1481 4 24.39518395093589 21.9556655558423 1.725000000000001
1482 4 24.39518395093589 21.9556655558423 5.175000000000001
1483 4 24.39518395093589 21.9556655558423 8.625000000000004
1484 4 24.39518395093589 21.9556655558423 12.075
1485 3 24.39518395093589 21.9556655558423 18.975
1486 5 24.39518395093589 21.9556655558423 22.425
1487 2 24.39518395093589 21.9556655558423 25.875
1488 5 24.39518395093589 21.9556655558423 29.325
1489 3 24.39518395093589 21.9556655558423 32.77500000000001
1490 5 24.39518395093589 21.9556655558423 15.525
1491 2 24.39518395093589 24.39518395093589 0
1492 2 24.39518395093589 24.39518395093589 6.900000000000002
1493 4 24.39518395093589 24.39518395093589 10.35
1494 1 24.39518395093589 24.39518395093589 20.7
1495 3 24.39518395093589 24.39518395093589 24.15000000000001
1496 1 24.39518395093589 24.39518395093589 27.6
1497 3 24.39518395093589 24.39518395093589 31.05
1498 1 24.39518395093589 24.39518395093589 3.450000000000003
1499 4 24.39518395093589 24.39518395093589 13.8
1500 4 24.39518395093589 24.39518395093589 17.25
1501 2 24.39518395093589 26.83470234602947 8.625
1502 4 24.39518395093589 26.83470234602947 22.425
1503 4 24.39518395093589 26.83470234602947 25.875
1504 2 24.39518395093589 26.83470234602947 29.325
1505 4 24.39518395093589 26.83470234602947 32.775
1506 1 24.39518395093589 26.83470234602948 1.725000000000001
1507 5 24.39518395093589 26.83470234602948 5.175000000000004
1508 5 24.39518395093589 26.83470234602948 12.075
1509 1 24.39518395093589 26.83470234602948 15.525
1510 3 24.39518395093589 26.83470234602948 18.975
1511 3 24.39518395093589 29.27422074112306 24.15000000000001
1512 1 24.39518395093589 29.27422074112306 27.6
1513 4 24.39518395093589 29.27422074112306 31.05
1514 2 24.39518395093589 29.27422074112307 0
1515 4 24.39518395093589 29.27422074112307 3.450000000000003
1516 3 24.39518395093589 29.27422074112307 6.900000000000002
1517 1 24.39518395093589 29.27422074112307 13.8
1518 1 24.39518395093589 29.27422074112307 17.25
1519 1 24.39518395093589 29.27422074112307 20.7
1520 2 24.39518395093589 29.27422074112307 10.35
1521 4 24.39518395093589 31.71373913621665 25.875
1522 4 24.39518395093589 31.71373913621665 29.325
1523 1 24.39518395093589 31.71373913621665 1.725000000000001
1524 2 24.39518395093589 31.71373913621665 5.175000000000001
1525 3 24.39518395093589 31.71373913621665 15.525
1526 2 24.39518395093589 31.71373913621665 18.975
1527 2 24.39518395093589 31.71373913621665 22.425
1528 2 24.39518395093589 31.71373913621666 8.625000000000004
1529 2 24.39518395093589 31.71373913621666 12.075
1530 3 24.39518395093589 31.71373913621666 32.77500000000001
1531 1 24.39518395093589 34.15325753131025 0
1532 5 24.39518395093589 34.15325753131025 3.450000000000003
1533 2 24.39518395093589 34.15325753131025 6.900000000000002
1534 4 24.39518395093589 34.15325753131025 10.35
1535 4 24.39518395093589 34.15325753131025 13.8
1536 2 24.39518395093589 34.15325753131025 17.25
1537 5 24.39518395093589 34.15325753131025 20.7
1538 5 24.39518395093589 34.15325753131025 24.15000000000001
1539 2 24.39518395093589 34.15325753131025 27.6
1540 5 24.39518395093589 34.15325753131025 31.05
1541 4 26.83470234602948 2.439518395093586 6.899999999999999
1542 1 26.83470234602948 2.439518395093586 10.35
1543 4 26.83470234602948 2.439518395093586 13.8
1544 2 26.83470234602948 2.439518395093586 20.7
1545 1 26.83470234602948 2.439518395093586 24.15
1546 5 26.83470234602948 2.439518395093586 31.05
1547 4 26.83470234602948 2.439518395093588 0
1548 3 26.83470234602948 2.439518395093588 3.450000000000003
1549 5 26.83470234602948 2.43951839509359 17.25
1550 5 26.83470234602948 2.43951839509359 27.6
1551 2 26.83470234602948 4.879036790187174 8.625
1552 3 26.83470234602948 4.879036790187174 12.075
1553 3 26.83470234602948 4.879036790187174 22.425
1554 4 26.83470234602948 4.879036790187174 32.775
1555 3 26.83470234602948 4.879036790187175 5.175000000000001
1556 5 26.83470234602948 4.879036790187178 1.725000000000001
1557 1 26.83470234602948 4.879036790187178 15.525
1558 1 26.83470234602948 4.879036790187178 18.975
1559 5 26.83470234602948 4.879036790187178 25.87500000000001
1560 1 26.83470234602948 4.879036790187178 29.325
1561 2 26.83470234602948 7.318555185280761 10.35
1562 3 26.83470234602948 7.318555185280764 6.899999999999999
1563 4 26.83470234602948 7.318555185280766 0
1564 2 26.83470234602948 7.318555185280766 3.449999999999999
1565 5 26.83470234602948 7.318555185280766 13.8
1566 4 26.83470234602948 7.318555185280766 17.25
1567 1 26.83470234602948 7.318555185280766 20.7
1568 4 26.83470234602948 7.318555185280766 24.15
1569 3 26.83470234602948 7.318555185280766 27.6
1570 4 26.83470234602948 7.318555185280766 31.05
1571 3 26.83470234602948 9.758073580374351 8.625
1572 3 26.83470234602948 9.758073580374353 1.725000000000001
1573 5 26.83470234602948 9.758073580374353 5.174999999999997
1574 5 26.83470234602948 9.758073580374353 12.075
1575 2 26.83470234602948 9.758073580374353 15.525
1576 2 26.83470234602948 9.758073580374353 18.975
1577 1 26.83470234602948 9.758073580374353 25.875
1578 5 26.83470234602948 9.758073580374353 29.325
1579 5 26.83470234602948 9.758073580374353 32.775
1580 4 26.83470234602948 9.758073580374358 22.425
1581 3 26.83470234602948 12.19759197546794 0
1582 5 26.83470234602948 12.19759197546794 3.449999999999999
1583 4 26.83470234602948 12.19759197546794 6.899999999999999
1584 5 26.83470234602948 12.19759197546794 13.8
1585 5 26.83470234602948 12.19759197546794 17.25
1586 5 26.83470234602948 12.19759197546794 27.6
1587 3 26.83470234602948 12.19759197546794 31.05
1588 3 26.83470234602948 12.19759197546794 10.35
1589 4 26.83470234602948 12.19759197546795 20.7
1590 2 26.83470234602948 12.19759197546795 24.15
1591 4 26.83470234602948 14.63711037056153 1.725000000000001
1592 4 26.83470234602948 14.63711037056153 5.174999999999997
1593 5 26.83470234602948 14.63711037056153 15.525
1594 5 26.83470234602948 14.63711037056153 29.325
1595 3 26.83470234602948 14.63711037056153 32.775
1596 1 26.83470234602948 14.63711037056153 12.075
1597 2 26.83470234602948 14.63711037056153 8.625
1598 4 26.83470234602948 14.63711037056153 18.975
1599 1 26.83470234602948 14.63711037056153 22.425
1600 3 26.83470234602948 14.63711037056153 25.875
1601 5 26.83470234602948 17.07662876565512 3.449999999999999
1602 3 26.83470234602948 17.07662876565512 31.05
1603 5 26.83470234602948 17.07662876565512 0
1604 1 26.83470234602948 17.07662876565512 13.8
1605 3 26.83470234602948 17.07662876565512 6.899999999999999
1606 2 26.83470234602948 17.07662876565512 10.35
1607 5 26.83470234602948 17.07662876565512 17.25
1608 3 26.83470234602948 17.07662876565512 20.7
1609 3 26.83470234602948 17.07662876565512 24.15
1610 4 26.83470234602948 17.07662876565512 27.6
1611 3 26.83470234602948 19.51614716074871 32.775
1612 5 26.83470234602948 19.51614716074871 1.724999999999998
1613 4 26.83470234602948 19.51614716074871 5.175000000000001
1614 3 26.83470234602948 19.51614716074871 8.625
1615 4 26.83470234602948 19.51614716074871 12.075
1616 4 26.83470234602948 19.51614716074871 15.525
1617 4 26.83470234602948 19.51614716074871 18.975
1618 5 26.83470234602948 19.51614716074871 22.425
1619 2 26.83470234602948 19.51614716074871 25.875
1620 1 26.83470234602948 19.51614716074871 29.325
1621 5 26.83470234602948 21.9556655558423 0
1622 4 26.83470234602948 21.9556655558423 3.449999999999999
1623 4 26.83470234602948 21.9556655558423 6.900000000000002
1624 4 26.83470234602948 21.9556655558423 10.35
1625 3 26.83470234602948 21.9556655558423 17.25
1626 3 26.83470234602948 21.9556655558423 20.7
1627 3 26.83470234602948 21.9556655558423 24.15
1628 4 26.83470234602948 21.9556655558423 27.6
1629 3 26.83470234602948 21.9556655558423 31.05
1630 2 26.83470234602948 21.9556655558423 13.8
1631 4 26.83470234602948 24.39518395093589 5.175000000000001
1632 5 26.83470234602948 24.39518395093589 8.625
1633 4 26.83470234602948 24.39518395093589 18.975
1634 5 26.83470234602948 24.39518395093589 22.425
1635 3 26.83470234602948 24.39518395093589 25.875
1636 4 26.83470234602948 24.39518395093589 29.325
1637 5 26.83470234602948 24.39518395093589 32.775
1638 4 26.83470234602948 24.39518395093589 1.725000000000001
1639 4 26.83470234602948 24.39518395093589 12.075
1640 3 26.83470234602948 24.39518395093589 15.525
1641 3 26.83470234602948 26.83470234602947 6.899999999999999
1642 2 26.83470234602948 26.83470234602947 20.7
1643 4 26.83470234602948 26.83470234602947 24.15
1644 4 26.83470234602948 26.83470234602947 27.6
1645 2 26.83470234602948 26.83470234602947 31.05
1646 5 26.83470234602948 26.83470234602948 0
1647 4 26.83470234602948 26.83470234602948 3.450000000000003
1648 2 26.83470234602948 26.83470234602948 10.35
1649 5 26.83470234602948 26.83470234602948 13.8
1650 2 26.83470234602948 26.83470234602948 17.25
1651 3 26.83470234602948 29.27422074112306 22.425
1652 4 26.83470234602948 29.27422074112306 25.875
1653 1 26.83470234602948 29.27422074112306 29.325
1654 4 26.83470234602948 29.27422074112307 1.725000000000001
1655 2 26.83470234602948 29.27422074112307 5.175000000000001
1656 3 26.83470234602948 29.27422074112307 12.075
1657 4 26.83470234602948 29.27422074112307 15.525
1658 5 26.83470234602948 29.27422074112307 18.975
1659 3 26.83470234602948 29.27422074112307 8.625
1660 2 26.83470234602948 29.27422074112307 32.775
1661 4 26.83470234602948 31.71373913621665 24.15
1662 1 26.83470234602948 31.71373913621665 27.6
1663 4 26.83470234602948 31.71373913621665 0
1664 3 26.83470234602948 31.71373913621665 3.449999999999999
1665 3 26.83470234602948 31.71373913621665 13.8
1666 2 26.83470234602948 31.71373913621665 17.25
1667 4 26.83470234602948 31.71373913621665 20.7
1668 5 26.83470234602948 31.71373913621666 6.900000000000002
1669 5 26.83470234602948 31.71373913621666 10.35
1670 3 26.83470234602948 31.71373913621666 31.05
1671 3 26.83470234602948 34.15325753131025 1.725000000000001
1672 2 26.83470234602948 34.15325753131025 5.175000000000001
1673 1 26.83470234602948 34.15325753131025 8.625
1674 1 26.83470234602948 34.15325753131025 12.075
1675 1 26.83470234602948 34.15325753131025 15.525
1676 2 26.83470234602948 34.15325753131025 18.975
1677 4 26.83470234602948 34.15325753131025 22.425
1678 2 26.83470234602948 34.15325753131025 25.875
1679 3 26.83470234602948 34.15325753131025 29.325
1680 5 26.83470234602948 34.15325753131025 32.775
1681 1 29.27422074112307 2.439518395093586 5.174999999999997
1682 3 29.27422074112307 2.439518395093586 8.625
1683 5 29.27422074112307 2.439518395093586 12.075
1684 3 29.27422074112307 2.439518395093586 18.975
1685 5 29.27422074112307 2.439518395093586 22.425
1686 5 29.27422074112307 2.439518395093586 29.325
1687 5 29.27422074112307 2.439518395093586 32.775
1688 2 29.27422074112307 2.439518395093588 1.725000000000001
1689 1 29.27422074112307 2.43951839509359 15.525
1690 5 29.27422074112307 2.43951839509359 25.875
1691 2 29.27422074112307 4.879036790187174 6.899999999999999
1692 2 29.27422074112307 4.879036790187174 10.35
1693 4 29.27422074112307 4.879036790187174 20.7
1694 1 29.27422074112307 4.879036790187174 31.05
1695 1 29.27422074112307 4.879036790187175 3.449999999999999
1696 3 29.27422074112307 4.879036790187178 0
1697 3 29.27422074112307 4.879036790187178 13.8
1698 4 29.27422074112307 4.879036790187178 17.25
1699 2 29.27422074112307 4.879036790187178 24.15000000000001
1700 5 29.27422074112307 4.879036790187178 27.59999999999999
1701 5 29.27422074112307 7.318555185280761 8.625
1702 3 29.27422074112307 7.318555185280761 32.77500000000001
1703 1 29.27422074112307 7.318555185280764 5.174999999999997
1704 4 29.27422074112307 7.318555185280766 1.724999999999998
1705 3 29.27422074112307 7.318555185280766 12.075
1706 3 29.27422074112307 7.318555185280766 15.525
1707 2 29.27422074112307 7.318555185280766 18.97499999999999
1708 2 29.27422074112307 7.318555185280766 22.425
1709 1 29.27422074112307 7.318555185280766 25.875
1710 1 29.27422074112307 7.318555185280766 29.325
1711 2 29.27422074112307 9.758073580374351 6.899999999999999
1712 2 29.27422074112307 9.758073580374353 0
1713 3 29.27422074112307 9.758073580374353 3.449999999999995
1714 2 29.27422074112307 9.758073580374353 10.35
1715 2 29.27422074112307 9.758073580374353 13.8
1716 4 29.27422074112307 9.758073580374353 17.25
1717 2 29.27422074112307 9.758073580374353 24.15
1718 4 29.27422074112307 9.758073580374353 27.6
1719 4 29.27422074112307 9.758073580374353 31.05
1720 2 29.27422074112307 9.758073580374358 20.7
1721 2 29.27422074112307 12.19759197546794 1.724999999999998
1722 2 29.27422074112307 12.19759197546794 5.174999999999997
1723 3 29.27422074112307 12.19759197546794 12.075
1724 1 29.27422074112307 12.19759197546794 15.525
1725 3 29.27422074112307 12.19759197546794 25.875
1726 4 29.27422074112307 12.19759197546794 29.325
1727 2 29.27422074112307 12.19759197546794 32.775
1728 3 29.27422074112307 12.19759197546794 8.625
1729 1 29.27422074112307 12.19759197546795 18.975
1730 2 29.27422074112307 12.19759197546795 22.425
1731 4 29.27422074112307 14.63711037056153 0
1732 4 29.27422074112307 14.63711037056153 3.449999999999995
1733 4 29.27422074112307 14.63711037056153 13.8
1734 1 29.27422074112307 14.63711037056153 27.6
1735 3 29.27422074112307 14.63711037056153 31.05
1736 3 29.27422074112307 14.63711037056153 10.35
1737 1 29.27422074112307 14.63711037056153 6.899999999999999
1738 4 29.27422074112307 14.63711037056153 17.25
1739 5 29.27422074112307 14.63711037056153 20.7
1740 5 29.27422074112307 14.63711037056153 24.15
1741 5 29.27422074112307 17.07662876565512 1.724999999999998
1742 2 29.27422074112307 17.07662876565512 29.325
1743 4 29.27422074112307 17.07662876565512 32.77500000000001
1744 2 29.27422074112307 17.07662876565512 12.075
1745 3 29.27422074112307 17.07662876565512 5.174999999999997
1746 3 29.27422074112307 17.07662876565512 8.625
1747 4 29.27422074112307 17.07662876565512 15.525
1748 4 29.27422074112307 17.07662876565512 18.97499999999999
1749 4 29.27422074112307 17.07662876565512 22.425
1750 3 29.27422074112307 17.07662876565512 25.875
1751 3 29.27422074112307 19.51614716074871 31.05
1752 3 29.27422074112307 19.51614716074871 3.449999999999999
1753 3 29.27422074112307 19.51614716074871 6.899999999999999
1754 2 29.27422074112307 19.51614716074871 10.35
1755 4 29.27422074112307 19.51614716074871 13.8
1756 5 29.27422074112307 19.51614716074871 17.25
1757 1 29.27422074112307 19.51614716074871 20.7
1758 5 29.27422074112307 19.51614716074871 24.15
1759 1 29.27422074112307 19.51614716074871 27.59999999999999
1760 1 29.27422074112307 19.51614716074871 34.49999999999999
1761 3 29.27422074112307 21.95566555584229 32.775
1762 1 29.27422074112307 21.9556655558423 1.724999999999998
1763 5 29.27422074112307 21.9556655558423 5.175000000000001
1764 5 29.27422074112307 21.9556655558423 8.625
1765 3 29.27422074112307 21.9556655558423 15.525
1766 5 29.27422074112307 21.9556655558423 18.975
1767 1 29.27422074112307 21.9556655558423 22.425
1768 1 29.27422074112307 21.9556655558423 25.875
1769 1 29.27422074112307 21.9556655558423 29.325
1770 4 29.27422074112307 21.9556655558423 12.075
1771 1 29.27422074112307 24.39518395093589 3.449999999999999
1772 3 29.27422074112307 24.39518395093589 6.899999999999999
1773 2 29.27422074112307 24.39518395093589 17.25
1774 3 29.27422074112307 24.39518395093589 20.7
1775 1 29.27422074112307 24.39518395093589 24.15
1776 1 29.27422074112307 24.39518395093589 27.6
1777 5 29.27422074112307 24.39518395093589 31.05
1778 2 29.27422074112307 24.39518395093589 0
1779 1 29.27422074112307 24.39518395093589 10.35
1780 1 29.27422074112307 24.39518395093589 13.8
1781 2 29.27422074112307 26.83470234602947 5.174999999999997
1782 5 29.27422074112307 26.83470234602947 18.975
1783 4 29.27422074112307 26.83470234602947 22.425
1784 5 29.27422074112307 26.83470234602947 25.875
1785 1 29.27422074112307 26.83470234602947 29.325
1786 4 29.27422074112307 26.83470234602948 1.725000000000001
1787 5 29.27422074112307 26.83470234602948 8.625
1788 4 29.27422074112307 26.83470234602948 12.075
1789 4 29.27422074112307 26.83470234602948 15.525
1790 2 29.27422074112307 26.83470234602948 32.775
1791 3 29.27422074112307 29.27422074112306 20.7
1792 4 29.27422074112307 29.27422074112306 24.15
1793 3 29.27422074112307 29.27422074112306 27.59999999999999
1794 5 29.27422074112307 29.27422074112307 0
1795 2 29.27422074112307 29.27422074112307 3.449999999999999
1796 1 29.27422074112307 29.27422074112307 10.35
1797 3 29.27422074112307 29.27422074112307 13.8
1798 5 29.27422074112307 29.27422074112307 17.25
1799 1 29.27422074112307 29.27422074112307 6.899999999999999
1800 5 29.27422074112307 29.27422074112307 31.05
1801 3 29.27422074112307 31.71373913621665 22.425
1802 4 29.27422074112307 31.71373913621665 25.875
1803 1 29.27422074112307 31.71373913621665 1.724999999999998
1804 5 29.27422074112307 31.71373913621665 12.075
1805 5 29.27422074112307 31.71373913621665 15.525
1806 1 29.27422074112307 31.71373913621665 18.97499999999999
1807 4 29.27422074112307 31.71373913621666 5.175000000000001
1808 5 29.27422074112307 31.71373913621666 8.624999999999996
1809 2 29.27422074112307 31.71373913621666 29.325
1810 1 29.27422074112307 31.71373913621666 32.775
1811 3 29.27422074112307 34.15325753131025 0
1812 5 29.27422074112307 34.15325753131025 3.449999999999999
1813 4 29.27422074112307 34.15325753131025 6.899999999999999
1814 2 29.27422074112307 34.15325753131025 10.35
1815 3 29.27422074112307 34.15325753131025 13.8
1816 5 29.27422074112307 34.15325753131025 17.25
1817 5 29.27422074112307 34.15325753131025 20.7
1818 5 29.27422074112307 34.15325753131025 24.15
1819 5 29.27422074112307 34.15325753131025 27.6
1820 3 29.27422074112307 34.15325753131025 31.05
1821 4 31.71373913621665 2.439518395093586 3.449999999999999
1822 4 31.71373913621665 2.439518395093586 6.900000000000002
1823 2 31.71373913621665 2.439518395093586 10.35
1824 3 31.71373913621665 2.439518395093586 17.25
1825 5 31.71373913621665 2.439518395093586 20.7
1826 2 31.71373913621665 2.439518395093586 27.6
1827 2 31.71373913621665 2.439518395093586 31.05
1828 1 31.71373913621665 2.439518395093588 3.83026943495679e-15
1829 2 31.71373913621665 2.43951839509359 13.8
1830 2 31.71373913621665 2.43951839509359 24.15
1831 1 31.71373913621665 4.879036790187174 5.175000000000001
1832 1 31.71373913621665 4.879036790187174 8.625
1833 4 31.71373913621665 4.879036790187174 18.975
1834 5 31.71373913621665 4.879036790187174 29.325
1835 3 31.71373913621665 4.879036790187174 32.77500000000001
1836 1 31.71373913621665 4.879036790187175 1.725000000000001
1837 5 31.71373913621665 4.879036790187178 12.075
1838 4 31.71373913621665 4.879036790187178 15.525
1839 1 31.71373913621665 4.879036790187178 22.42500000000001
1840 5 31.71373913621665 4.879036790187178 25.875
1841 1 31.71373913621665 7.318555185280761 6.900000000000002
1842 4 31.71373913621665 7.318555185280761 31.05000000000001
1843 1 31.71373913621665 7.318555185280764 3.449999999999999
1844 5 31.71373913621665 7.318555185280766 0
1845 4 31.71373913621665 7.318555185280766 10.35
1846 1 31.71373913621665 7.318555185280766 13.8
1847 5 31.71373913621665 7.318555185280766 17.25
1848 2 31.71373913621665 7.318555185280766 20.7
1849 2 31.71373913621665 7.318555185280766 24.15
1850 4 31.71373913621665 7.318555185280766 27.6
1851 5 31.71373913621665 9.758073580374349 32.77500000000001
1852 3 31.71373913621665 9.758073580374351 5.175000000000001
1853 3 31.71373913621665 9.758073580374353 1.724999999999998
1854 4 31.71373913621665 9.758073580374353 8.625000000000004
1855 5 31.71373913621665 9.758073580374353 12.075
1856 2 31.71373913621665 9.758073580374353 15.525
1857 2 31.71373913621665 9.758073580374353 22.425
1858 3 31.71373913621665 9.758073580374353 25.875
1859 1 31.71373913621665 9.758073580374353 29.325
1860 4 31.71373913621665 9.758073580374358 18.975
1861 1 31.71373913621665 12.19759197546794 0
1862 4 31.71373913621665 12.19759197546794 3.449999999999999
1863 4 31.71373913621665 12.19759197546794 10.35
1864 4 31.71373913621665 12.19759197546794 13.8
1865 4 31.71373913621665 12.19759197546794 24.15
1866 1 31.71373913621665 12.19759197546794 27.6
1867 5 31.71373913621665 12.19759197546794 31.05
1868 3 31.71373913621665 12.19759197546794 6.900000000000002
1869 4 31.71373913621665 12.19759197546795 17.25
1870 5 31.71373913621665 12.19759197546795 20.7
1871 3 31.71373913621665 14.63711037056153 1.724999999999998
1872 5 31.71373913621665 14.63711037056153 12.075
1873 3 31.71373913621665 14.63711037056153 25.875
1874 2 31.71373913621665 14.63711037056153 29.325
1875 2 31.71373913621665 14.63711037056153 32.77500000000001
1876 1 31.71373913621665 14.63711037056153 8.625000000000004
1877 3 31.71373913621665 14.63711037056153 5.175000000000001
1878 2 31.71373913621665 14.63711037056153 15.525
1879 2 31.71373913621665 14.63711037056153 18.975
1880 4 31.71373913621665 14.63711037056153 22.425
1881 2 31.71373913621665 17.07662876565512 0
1882 4 31.71373913621665 17.07662876565512 27.6
1883 2 31.71373913621665 17.07662876565512 31.05000000000001
1884 4 31.71373913621665 17.07662876565512 10.35
1885 1 31.71373913621665 17.07662876565512 3.449999999999999
1886 3 31.71373913621665 17.07662876565512 6.900000000000002
1887 2 31.71373913621665 17.07662876565512 13.8
1888 4 31.71373913621665 17.07662876565512 17.25
1889 2 31.71373913621665 17.07662876565512 20.7
1890 2 31.71373913621665 17.07662876565512 24.15
1891 2 31.71373913621665 19.5161471607487 29.325
1892 1 31.71373913621665 19.5161471607487 32.77500000000001
1893 2 31.71373913621665 19.51614716074871 1.725000000000001
1894 1 31.71373913621665 19.51614716074871 5.175000000000001
1895 1 31.71373913621665 19.51614716074871 8.625
1896 4 31.71373913621665 19.51614716074871 12.075
1897 1 31.71373913621665 19.51614716074871 15.525
1898 1 31.71373913621665 19.51614716074871 18.975
1899 5 31.71373913621665 19.51614716074871 22.425
1900 5 31.71373913621665 19.51614716074871 25.875
1901 3 31.71373913621665 21.95566555584229 31.05
1902 2 31.71373913621665 21.95566555584229 0
1903 3 31.71373913621665 21.95566555584229 3.450000000000003
1904 1 31.71373913621665 21.95566555584229 6.900000000000002
1905 4 31.71373913621665 21.95566555584229 13.8
1906 3 31.71373913621665 21.95566555584229 17.25
1907 4 31.71373913621665 21.95566555584229 20.7
1908 5 31.71373913621665 21.95566555584229 24.15
1909 4 31.71373913621665 21.95566555584229 27.6
1910 1 31.71373913621665 21.9556655558423 10.35
1911 4 31.71373913621665 24.39518395093588 1.725000000000001
1912 5 31.71373913621665 24.39518395093588 5.175000000000001
1913 5 31.71373913621665 24.39518395093588 15.525
1914 2 31.71373913621665 24.39518395093588 18.975
1915 2 31.71373913621665 24.39518395093588 22.425
1916 2 31.71373913621665 24.39518395093588 25.875
1917 4 31.71373913621665 24.39518395093588 29.325
1918 3 31.71373913621665 24.39518395093589 8.625000000000004
1919 5 31.71373913621665 24.39518395093589 12.075
1920 2 31.71373913621665 24.39518395093589 32.77500000000001
1921 2 31.71373913621665 26.83470234602947 3.449999999999999
1922 4 31.71373913621665 26.83470234602947 17.25
1923 4 31.71373913621665 26.83470234602947 20.7
1924 5 31.71373913621665 26.83470234602947 24.15
1925 3 31.71373913621665 26.83470234602947 27.6
1926 2 31.71373913621665 26.83470234602947 3.83026943495679e-15
1927 5 31.71373913621665 26.83470234602947 6.900000000000002
1928 5 31.71373913621665 26.83470234602947 10.35
1929 1 31.71373913621665 26.83470234602947 13.8
1930 5 31.71373913621665 26.83470234602948 31.05
1931 3 31.71373913621665 29.27422074112306 18.975
1932 1 31.71373913621665 29.27422074112306 22.425
1933 4 31.71373913621665 29.27422074112306 25.875
1934 3 31.71373913621665 29.27422074112306 1.725000000000001
1935 4 31.71373913621665 29.27422074112306 8.625
1936 1 31.71373913621665 29.27422074112306 12.075
1937 3 31.71373913621665 29.27422074112306 15.525
1938 5 31.71373913621665 29.27422074112307 5.175000000000001
1939 3 31.71373913621665 29.27422074112307 29.325
1940 4 31.71373913621665 29.27422074112307 32.77500000000001
1941 1 31.71373913621665 31.71373913621665 20.7
1942 4 31.71373913621665 31.71373913621665 24.15
1943 3 31.71373913621665 31.71373913621665 0
1944 2 31.71373913621665 31.71373913621665 10.35
1945 4 31.71373913621665 31.71373913621665 13.8
1946 4 31.71373913621665 31.71373913621665 17.25
1947 5 31.71373913621665 31.71373913621665 3.450000000000003
1948 1 31.71373913621665 31.71373913621665 6.899999999999999
1949 5 31.71373913621665 31.71373913621665 27.6
1950 4 31.71373913621665 31.71373913621665 31.05
1951 5 31.71373913621665 34.15325753131024 1.725000000000001
1952 4 31.71373913621665 34.15325753131024 5.175000000000001
1953 5 31.71373913621665 34.15325753131024 8.625
1954 2 31.71373913621665 34.15325753131024 12.075
1955 3 31.71373913621665 34.15325753131024 15.525
1956 1 31.71373913621665 34.15325753131024 18.975
1957 2 31.71373913621665 34.15325753131024 22.425
1958 1 31.71373913621665 34.15325753131024 25.875
1959 4 31.71373913621665 34.15325753131024 29.325
1960 2 31.71373913621665 34.15325753131024 32.77500000000001
