# BCC equiatomic HfMoTaTiZr; profile=compact; x=[100]; seed=20262843

2000 atoms
5 atom types

0.0 34.5 xlo xhi
0.0 34.5 ylo yhi
0.0 34.5 zlo zhi
0 0 0 xy xz yz

Masses

1 178.49 # Hf
2 95.95 # Mo
3 180.94788 # Ta
4 47.867 # Ti
5 91.224 # Zr

Atoms # atomic

1 1 0 0 0
2 1 0 0 3.45
3 4 0 0 6.9
4 2 0 0 10.35
5 2 0 0 13.8
6 5 0 0 17.25
7 2 0 0 20.7
8 1 0 0 24.15
9 1 0 0 27.6
10 1 0 0 31.05
11 4 0 3.45 0
12 2 0 3.45 3.450000000000001
13 3 0 6.9 0
14 3 0 6.9 6.900000000000001
15 5 0 10.35 0
16 4 0 10.35 3.449999999999999
17 1 0 10.35 10.35
18 3 0 10.35 13.8
19 4 0 10.35 17.25
20 3 0 10.35 27.6
21 3 0 13.8 0
22 2 0 13.8 3.449999999999999
23 4 0 13.8 10.35
24 1 0 13.8 13.8
25 2 0 13.8 17.25
26 4 0 13.8 24.15000000000001
27 3 0 13.8 31.05
28 5 0 17.25 0
29 5 0 17.25 6.900000000000002
30 4 0 17.25 10.35
31 4 0 17.25 13.8
32 4 0 17.25 17.25
33 5 0 17.25 20.7
34 2 0 17.25 27.6
35 3 0 20.7 0
36 3 0 20.7 3.449999999999999
37 1 0 20.7 6.899999999999999
38 1 0 20.7 17.25
39 2 0 20.7 20.7
40 2 0 20.7 27.6
41 3 0 24.15 0
42 5 0 24.15 3.449999999999999
43 2 0 24.15 13.8
44 5 0 24.15 24.15
45 4 0 24.15 31.05
46 5 0 27.6 0
47 5 0 27.6 3.449999999999999
48 1 0 27.6 6.899999999999999
49 2 0 27.6 10.35
50 5 0 27.6 17.25
51 2 0 27.6 20.7
52 5 0 27.6 27.6
53 3 0 31.05 0
54 5 0 31.05 3.450000000000001
55 3 0 31.05 13.8
56 2 0 31.05 24.15000000000001
57 5 0 31.05 31.05
58 2 4.787836793695988e-16 3.45 10.35
59 4 4.787836793695988e-16 3.45 13.8
60 5 4.787836793695988e-16 3.45 20.7
61 3 4.787836793695988e-16 3.45 24.15
62 5 4.787836793695988e-16 3.45 27.6
63 2 4.787836793695988e-16 3.45 31.05
64 3 9.575673587391975e-16 6.899999999999999 10.35
65 2 9.575673587391975e-16 6.899999999999999 20.7
66 3 9.575673587391975e-16 6.899999999999999 24.15
67 5 9.575673587391975e-16 6.899999999999999 27.6
68 4 9.575673587391975e-16 10.35 6.899999999999999
69 2 1.915134717478395e-15 10.35 20.7
70 2 1.915134717478395e-15 10.35 24.15
71 4 1.915134717478395e-15 13.8 20.7
72 3 1.915134717478395e-15 20.7 10.35
73 1 1.915134717478395e-15 20.7 13.8
74 5 1.915134717478395e-15 20.7 24.15
75 2 1.915134717478395e-15 20.7 31.05
76 2 1.915134717478395e-15 24.15 6.9
77 3 1.915134717478395e-15 24.15 10.35
78 4 1.915134717478395e-15 24.15 20.7
79 5 1.915134717478395e-15 24.15 27.59999999999999
80 1 1.915134717478395e-15 27.6 24.15
81 3 1.915134717478395e-15 31.05 20.7
82 4 1.724999999999998 8.625000000000004 32.77500000000001
83 2 1.724999999999998 12.075 29.325
84 4 1.724999999999998 15.525 25.875
85 3 1.724999999999998 15.525 32.77500000000001
86 4 1.724999999999998 25.875 15.525
87 3 1.724999999999998 25.875 32.77500000000001
88 1 1.724999999999998 29.325 12.075
89 2 1.724999999999998 29.325 29.325
90 1 1.724999999999998 32.77500000000001 5.175000000000001
91 5 1.724999999999998 32.77500000000001 8.625000000000004
92 2 1.724999999999998 32.77500000000001 15.525
93 1 1.724999999999998 32.77500000000001 25.875
94 3 1.724999999999998 32.77500000000001 32.77500000000001
95 4 1.724999999999999 5.175000000000002 15.525
96 5 1.724999999999999 5.175000000000002 32.77500000000001
97 1 1.724999999999999 15.525 5.175000000000001
98 2 1.725 5.175000000000001 5.175
99 3 1.725 8.625000000000002 12.075
100 3 1.725 8.625000000000002 15.525
101 4 1.725 8.625000000000002 29.325
102 5 1.725 12.075 1.725
103 2 1.725 12.075 8.625000000000002
104 4 1.725 12.075 12.075
105 2 1.725 12.075 15.525
106 5 1.725 12.075 25.875
107 2 1.725 12.075 32.775
108 3 1.725 15.525 1.725
109 1 1.725 15.525 8.625
110 3 1.725 15.525 12.075
111 3 1.725 15.525 15.525
112 4 1.725 15.525 22.425
113 4 1.725 15.525 29.325
114 1 1.725 18.975 1.725
115 4 1.725 18.975 22.425
116 5 1.725 18.975 29.325
117 1 1.725 22.425 1.725
118 2 1.725 22.425 5.174999999999999
119 5 1.725 22.425 15.525
120 3 1.725 22.425 18.975
121 4 1.725 22.425 25.875
122 4 1.725 22.425 32.775
123 4 1.725 25.875 1.725
124 4 1.725 25.875 12.075
125 3 1.725 25.875 22.425
126 1 1.725 25.875 29.325
127 3 1.725 29.325 1.725
128 2 1.725 29.325 5.174999999999999
129 4 1.725 29.325 8.625000000000002
130 3 1.725 29.325 15.525
131 2 1.725 29.325 18.975
132 5 1.725 29.325 25.87500000000001
133 3 1.725 29.325 32.775
134 5 1.725 32.775 1.725000000000001
135 4 1.725 32.775 12.075
136 1 1.725 32.775 22.425
137 4 1.725 32.775 29.325
138 1 1.725 1.725 1.725
139 2 1.725 1.725 5.175000000000001
140 3 1.725 1.725 8.625000000000002
141 2 1.725 1.725 12.075
142 5 1.725 1.725 15.525
143 1 1.725 1.725 18.975
144 2 1.725 1.725 22.425
145 1 1.725 1.725 25.875
146 1 1.725 1.725 29.325
147 5 1.725 1.725 32.775
148 1 1.725 5.175000000000001 1.725000000000001
149 4 1.725 8.625000000000002 1.725
150 1 1.725000000000001 5.175 8.625
151 5 1.725000000000001 5.175 12.075
152 3 1.725000000000001 5.175 18.975
153 1 1.725000000000001 5.175 22.425
154 5 1.725000000000001 5.175 25.875
155 5 1.725000000000001 5.175 29.325
156 1 1.725000000000001 8.625 5.175000000000001
157 1 1.725000000000001 12.075 5.174999999999999
158 4 1.725000000000001 8.625 8.625
159 4 1.725000000000001 8.625 18.975
160 4 1.725000000000001 8.625 22.425
161 5 1.725000000000001 8.625 25.875
162 3 1.725000000000001 12.075 18.975
163 3 1.725000000000001 12.075 22.425
164 4 1.725000000000001 15.525 18.975
165 1 1.725000000000001 18.975 5.175000000000001
166 2 1.725000000000001 18.975 8.625
167 1 1.725000000000001 18.975 12.075
168 5 1.725000000000001 18.975 15.525
169 1 1.725000000000001 18.975 18.975
170 1 1.725000000000001 18.975 25.875
171 3 1.725000000000001 18.975 32.775
172 4 1.725000000000001 22.425 8.625000000000002
173 3 1.725000000000001 22.425 12.075
174 1 1.725000000000001 22.425 22.425
175 3 1.725000000000001 22.425 29.325
176 2 1.725000000000001 25.875 5.175000000000001
177 2 1.725000000000001 25.875 8.625
178 4 1.725000000000001 25.875 18.975
179 1 1.725000000000001 25.875 25.875
180 4 1.725000000000001 29.325 22.425
181 1 1.725000000000001 32.775 18.975
182 5 3.449999999999998 10.35 31.05
183 2 3.449999999999998 13.8 27.6
184 5 3.449999999999998 27.6 13.8
185 2 3.449999999999998 27.6 31.05
186 2 3.449999999999998 31.05 10.35
187 4 3.449999999999998 31.05 27.6
188 3 3.449999999999999 6.900000000000002 13.8
189 3 3.449999999999999 6.900000000000002 31.05
190 1 3.449999999999999 10.35 10.35
191 2 3.449999999999999 10.35 13.8
192 4 3.449999999999999 10.35 27.6
193 4 3.449999999999999 13.8 0
194 4 3.449999999999999 13.8 6.900000000000002
195 3 3.449999999999999 13.8 10.35
196 2 3.449999999999999 13.8 13.8
197 3 3.449999999999999 13.8 24.15
198 2 3.449999999999999 13.8 31.05
199 3 3.449999999999999 17.25 24.15
200 1 3.449999999999999 17.25 31.05
201 4 3.449999999999999 20.7 0
202 4 3.449999999999999 20.7 20.7
203 1 3.449999999999999 20.7 27.6
204 2 3.449999999999999 24.15 0
205 5 3.449999999999999 24.15 3.449999999999999
206 2 3.449999999999999 24.15 13.8
207 3 3.449999999999999 24.15 17.25
208 1 3.449999999999999 24.15 24.15
209 5 3.449999999999999 24.15 31.05
210 5 3.449999999999999 27.6 0
211 4 3.449999999999999 27.6 10.35
212 1 3.449999999999999 27.6 20.7
213 3 3.449999999999999 27.6 27.6
214 3 3.449999999999999 31.05 0
215 5 3.449999999999999 31.05 3.449999999999999
216 5 3.449999999999999 31.05 6.900000000000002
217 1 3.449999999999999 31.05 13.8
218 3 3.449999999999999 31.05 17.25
219 1 3.449999999999999 31.05 24.15000000000001
220 4 3.449999999999999 31.05 31.05
221 5 3.45 4.787836793695988e-16 10.35
222 3 3.45 4.787836793695988e-16 13.8
223 3 3.45 4.787836793695988e-16 20.7
224 5 3.45 4.787836793695988e-16 24.15
225 4 3.45 4.787836793695988e-16 27.6
226 2 3.45 4.787836793695988e-16 31.05
227 2 3.45 10.35 0
228 2 3.45 0 0
229 1 3.45 0 3.450000000000001
230 3 3.45 3.45 0
231 4 3.45 3.45 3.45
232 3 3.45 3.45 6.900000000000001
233 3 3.45 3.45 10.35
234 1 3.45 3.45 13.8
235 4 3.45 3.45 17.25
236 2 3.45 3.45 20.7
237 4 3.45 3.45 24.15
238 3 3.45 3.45 27.6
239 5 3.45 3.45 31.05
240 3 3.45 6.900000000000001 3.449999999999999
241 5 3.45 10.35 3.450000000000001
242 5 3.45 13.8 3.449999999999999
243 4 3.45 17.25 3.449999999999999
244 4 3.450000000000001 6.9 0
245 2 3.450000000000001 34.5 6.9
246 1 3.450000000000001 6.9 6.9
247 4 3.450000000000001 6.9 10.35
248 1 3.450000000000001 6.9 17.25
249 4 3.450000000000001 6.9 20.7
250 5 3.450000000000001 6.9 24.15
251 4 3.450000000000001 6.9 27.6
252 2 3.450000000000001 10.35 6.9
253 2 3.450000000000001 10.35 17.25
254 3 3.450000000000001 10.35 20.7
255 4 3.450000000000001 10.35 24.15
256 4 3.450000000000001 13.8 17.25
257 5 3.450000000000001 13.8 20.7
258 4 3.450000000000001 17.25 6.899999999999999
259 4 3.450000000000001 17.25 10.35
260 2 3.450000000000001 17.25 13.8
261 4 3.450000000000001 17.25 20.7
262 5 3.450000000000001 17.25 27.6
263 5 3.450000000000001 17.25 34.5
264 1 3.450000000000001 20.7 3.450000000000001
265 3 3.450000000000001 20.7 6.9
266 3 3.450000000000001 20.7 10.35
267 2 3.450000000000001 20.7 13.8
268 3 3.450000000000001 20.7 17.25
269 4 3.450000000000001 20.7 24.15
270 4 3.450000000000001 20.7 31.05
271 3 3.450000000000001 24.15 6.900000000000002
272 3 3.450000000000001 24.15 10.35
273 4 3.450000000000001 24.15 20.7
274 5 3.450000000000001 24.15 27.6
275 1 3.450000000000001 27.6 3.450000000000001
276 5 3.450000000000001 27.6 6.9
277 1 3.450000000000001 27.6 17.25
278 3 3.450000000000001 27.6 24.15
279 1 3.450000000000001 31.05 20.7
280 4 3.450000000000002 34.5 17.25
281 5 3.450000000000003 17.25 17.25
282 2 5.174999999999997 12.075 29.325
283 1 5.174999999999997 29.325 12.075
284 2 5.174999999999997 29.325 29.325
285 1 5.174999999999999 8.625000000000002 12.075
286 4 5.174999999999999 8.625000000000002 29.325
287 5 5.174999999999999 8.625000000000002 32.77500000000001
288 5 5.174999999999999 12.075 8.625
289 1 5.174999999999999 12.075 12.075
290 3 5.174999999999999 12.075 25.875
291 1 5.174999999999999 15.525 25.875
292 1 5.174999999999999 18.975 22.425
293 5 5.174999999999999 18.975 29.325
294 4 5.174999999999999 22.425 18.975
295 1 5.174999999999999 22.425 25.875
296 5 5.174999999999999 25.875 1.725
297 2 5.174999999999999 25.875 12.075
298 1 5.174999999999999 25.875 15.525
299 5 5.174999999999999 25.875 22.425
300 2 5.174999999999999 25.875 29.325
301 3 5.174999999999999 25.875 32.77500000000001
302 4 5.174999999999999 29.325 8.625
303 4 5.174999999999999 29.325 18.975
304 1 5.174999999999999 29.325 25.875
305 5 5.174999999999999 32.77500000000001 8.625
306 3 5.174999999999999 32.77500000000001 25.875
307 2 5.175 1.725000000000001 8.625
308 1 5.175 1.725000000000001 12.075
309 4 5.175 1.725000000000001 18.975
310 5 5.175 1.725000000000001 22.425
311 2 5.175 1.725000000000001 25.875
312 5 5.175 1.725000000000001 29.325
313 5 5.175 8.625 1.725
314 1 5.175 12.075 1.725000000000001
315 1 5.175 18.975 1.725
316 5 5.175000000000001 1.725 5.175
317 1 5.175000000000001 1.725 1.725000000000001
318 2 5.175000000000001 5.175000000000001 1.725
319 3 5.175000000000001 5.175000000000001 5.175000000000001
320 1 5.175000000000001 5.175000000000001 8.625
321 5 5.175000000000001 5.175000000000001 12.075
322 3 5.175000000000001 5.175000000000001 15.525
323 2 5.175000000000001 5.175000000000001 18.975
324 4 5.175000000000001 5.175000000000001 22.425
325 5 5.175000000000001 5.175000000000001 25.875
326 3 5.175000000000001 5.175000000000001 29.325
327 3 5.175000000000001 5.175000000000001 32.77500000000001
328 4 5.175000000000001 8.625 5.175000000000001
329 1 5.175000000000001 8.625 8.625
330 5 5.175000000000001 8.625 15.525
331 1 5.175000000000001 8.625 18.975
332 2 5.175000000000001 8.625 22.425
333 2 5.175000000000001 8.625 25.875
334 2 5.175000000000001 12.075 5.175000000000001
335 1 5.175000000000001 12.075 15.525
336 3 5.175000000000001 12.075 18.975
337 1 5.175000000000001 12.075 22.425
338 2 5.175000000000001 12.075 32.77500000000001
339 3 5.175000000000001 15.525 5.175000000000001
340 4 5.175000000000001 15.525 8.625
341 5 5.175000000000001 15.525 12.075
342 5 5.175000000000001 15.525 22.425
343 3 5.175000000000001 15.525 29.325
344 2 5.175000000000001 15.525 32.775
345 2 5.175000000000001 18.975 5.174999999999999
346 2 5.175000000000001 18.975 8.625000000000002
347 2 5.175000000000001 18.975 12.075
348 4 5.175000000000001 18.975 18.975
349 4 5.175000000000001 18.975 25.875
350 2 5.175000000000001 22.425 1.725000000000001
351 2 5.175000000000001 22.425 5.175000000000001
352 1 5.175000000000001 22.425 8.625
353 4 5.175000000000001 22.425 12.075
354 3 5.175000000000001 22.425 15.525
355 5 5.175000000000001 22.425 22.425
356 3 5.175000000000001 22.425 29.325
357 5 5.175000000000001 22.425 32.77500000000001
358 3 5.175000000000001 25.875 5.175000000000002
359 2 5.175000000000001 25.875 8.624999999999998
360 1 5.175000000000001 25.875 18.975
361 1 5.175000000000001 25.875 25.875
362 1 5.175000000000001 29.325 1.725000000000001
363 1 5.175000000000001 29.325 5.175000000000001
364 3 5.175000000000001 29.325 15.525
365 5 5.175000000000001 29.325 22.425
366 5 5.175000000000001 29.325 32.77500000000001
367 1 5.175000000000001 32.77500000000001 1.724999999999998
368 1 5.175000000000001 32.77500000000001 5.175000000000001
369 3 5.175000000000001 32.77500000000001 12.075
370 2 5.175000000000001 32.77500000000001 15.525
371 1 5.175000000000001 32.77500000000001 22.425
372 4 5.175000000000001 32.77500000000001 29.325
373 5 5.175000000000001 32.77500000000001 32.775
374 2 5.175000000000002 1.724999999999999 15.525
375 1 5.175000000000002 1.724999999999999 32.77500000000001
376 4 5.175000000000002 15.525 1.724999999999998
377 2 5.175000000000002 15.525 15.525
378 2 5.175000000000002 15.525 18.975
379 2 5.175000000000002 18.975 15.525
380 1 5.175000000000002 18.975 32.775
381 5 5.175000000000002 32.775 18.975
382 2 6.899999999999999 10.35 10.35
383 3 6.899999999999999 10.35 27.6
384 3 6.899999999999999 10.35 31.05
385 2 6.899999999999999 13.8 27.6
386 2 6.899999999999999 17.25 24.15
387 3 6.899999999999999 20.7 20.7
388 1 6.899999999999999 20.7 27.6
389 4 6.899999999999999 24.15 17.25000000000001
390 5 6.899999999999999 24.15 24.15000000000001
391 1 6.899999999999999 27.6 0
392 1 6.899999999999999 27.6 10.35
393 1 6.899999999999999 27.6 13.8
394 4 6.899999999999999 27.6 20.7
395 5 6.899999999999999 27.6 27.6
396 3 6.899999999999999 27.6 31.05
397 5 6.899999999999999 31.05 10.35
398 1 6.899999999999999 31.05 27.6
399 1 6.899999999999999 9.575673587391975e-16 10.35
400 4 6.899999999999999 9.575673587391975e-16 20.7
401 1 6.899999999999999 9.575673587391975e-16 24.15
402 1 6.899999999999999 9.575673587391975e-16 27.6
403 1 6.899999999999999 10.35 0
404 3 6.899999999999999 20.7 0
405 5 6.9 0 0
406 1 6.9 0 6.900000000000001
407 4 6.9 3.450000000000001 0
408 1 6.9 3.450000000000001 6.9
409 4 6.9 3.450000000000001 10.35
410 1 6.9 3.450000000000001 17.25
411 2 6.9 3.450000000000001 20.7
412 1 6.9 3.450000000000001 24.15
413 1 6.9 3.450000000000001 27.6
414 2 6.9 6.9 0
415 3 6.9 6.9 3.450000000000001
416 3 6.9 6.9 6.9
417 5 6.9 6.9 10.35
418 3 6.9 6.9 13.8
419 5 6.9 6.9 17.25
420 5 6.9 6.9 20.7
421 2 6.9 6.9 24.15
422 1 6.9 6.9 27.6
423 5 6.9 6.9 31.05
424 1 6.9 10.35 3.450000000000001
425 5 6.9 10.35 6.9
426 3 6.9 10.35 13.8
427 3 6.9 10.35 17.25
428 4 6.9 10.35 20.7
429 3 6.9 10.35 24.15
430 2 6.9 13.8 6.899999999999999
431 5 6.9 13.8 10.35
432 3 6.9 13.8 24.15
433 2 6.9 17.25 3.450000000000001
434 5 6.9 17.25 6.9
435 3 6.9 17.25 10.35
436 5 6.9 17.25 20.7
437 3 6.9 17.25 27.59999999999999
438 2 6.9 17.25 31.05
439 4 6.9 20.7 3.449999999999999
440 2 6.9 20.7 6.900000000000002
441 4 6.9 20.7 10.35
442 3 6.9 20.7 17.25
443 5 6.9 20.7 24.15
444 3 6.9 24.15 1.915134717478395e-15
445 3 6.9 24.15 3.450000000000001
446 1 6.9 24.15 6.9
447 5 6.9 24.15 10.35
448 4 6.9 24.15 13.8
449 2 6.9 24.15 20.7
450 3 6.9 24.15 27.6
451 5 6.9 24.15 31.05
452 2 6.9 27.6 3.450000000000003
453 1 6.9 27.6 6.899999999999999
454 2 6.9 27.6 17.25
455 4 6.9 27.6 24.15
456 2 6.9 31.05 6.899999999999999
457 5 6.9 31.05 17.25
458 2 6.9 31.05 24.15
459 1 6.9 34.5 3.45
460 2 6.900000000000001 3.45 3.449999999999999
461 1 6.900000000000001 13.8 0
462 2 6.900000000000001 17.25 34.5
463 3 6.900000000000001 34.5 13.8
464 3 6.900000000000001 34.5 17.25
465 4 6.900000000000001 34.5 31.05
466 4 6.900000000000002 3.449999999999999 13.8
467 3 6.900000000000002 3.449999999999999 31.05
468 5 6.900000000000002 13.8 3.449999999999999
469 1 6.900000000000002 13.8 13.8
470 1 6.900000000000002 13.8 17.25
471 2 6.900000000000002 13.8 20.7
472 5 6.900000000000002 13.8 31.05
473 1 6.900000000000002 17.25 13.8
474 4 6.900000000000002 17.25 17.25
475 2 6.900000000000002 20.7 13.8
476 3 6.900000000000002 20.7 31.05
477 3 6.900000000000002 31.05 0
478 2 6.900000000000002 31.05 3.449999999999999
479 1 6.900000000000002 31.05 13.8
480 2 6.900000000000002 31.05 20.7
481 2 6.900000000000002 31.05 31.05
482 4 8.624999999999998 15.525 25.875
483 4 8.624999999999998 18.975 22.425
484 3 8.624999999999998 22.425 18.975
485 1 8.624999999999998 22.425 25.87500000000001
486 1 8.624999999999998 25.875 15.52500000000001
487 2 8.624999999999998 25.875 22.425
488 5 8.625 1.725000000000001 5.175000000000001
489 5 8.625 1.725000000000001 8.625
490 1 8.625 1.725000000000001 18.975
491 5 8.625 1.725000000000001 22.425
492 2 8.625 1.725000000000001 25.875
493 1 8.625 5.175 1.725
494 5 8.625 5.175000000000001 5.175000000000001
495 3 8.625 5.175000000000001 8.625
496 4 8.625 5.175000000000001 15.525
497 3 8.625 5.175000000000001 18.975
498 3 8.625 5.175000000000001 22.425
499 4 8.625 5.175000000000001 25.875
500 4 8.625 8.625 1.725000000000001
501 2 8.625 8.625 5.175000000000001
502 3 8.625 8.625 8.625
503 1 8.625 8.625 12.075
504 5 8.625 8.625 15.525
505 4 8.625 8.625 18.975
506 3 8.625 8.625 22.425
507 3 8.625 8.625 25.875
508 1 8.625 8.625 29.325
509 4 8.625 8.625 32.77500000000001
510 1 8.625 12.075 8.625
511 2 8.625 12.075 25.875
512 1 8.625 12.075 29.325
513 2 8.625 15.525 5.174999999999999
514 2 8.625 15.525 8.625000000000002
515 4 8.625 15.525 22.425
516 5 8.625 18.975 1.725000000000001
517 3 8.625 18.975 5.175000000000001
518 5 8.625 18.975 8.625
519 5 8.625 18.975 18.975
520 4 8.625 18.975 25.875
521 4 8.625 18.975 29.325
522 4 8.625 22.425 1.725
523 2 8.625 22.425 5.175000000000002
524 3 8.625 22.425 8.624999999999998
525 4 8.625 22.425 15.525
526 5 8.625 22.425 22.425
527 3 8.625 25.875 1.725000000000001
528 1 8.625 25.875 5.175000000000001
529 1 8.625 25.875 8.625
530 2 8.625 25.875 12.075
531 4 8.625 25.875 18.975
532 4 8.625 25.875 25.875
533 5 8.625 25.875 29.325
534 3 8.625 25.875 32.77500000000001
535 3 8.625 29.325 8.625
536 5 8.625 29.325 12.075
537 1 8.625 29.325 18.975
538 4 8.625 29.325 25.875
539 3 8.625 29.325 29.325
540 2 8.625 32.77500000000001 8.625
541 4 8.625 32.77500000000001 25.875
542 5 8.625000000000002 1.725 12.075
543 4 8.625000000000002 1.725 15.525
544 2 8.625000000000002 1.725 29.325
545 3 8.625000000000002 1.725 1.725
546 2 8.625000000000002 5.174999999999999 12.075
547 4 8.625000000000002 5.174999999999999 29.325
548 2 8.625000000000002 5.174999999999999 32.77500000000001
549 4 8.625000000000002 12.075 1.725
550 3 8.625000000000002 12.075 5.174999999999999
551 5 8.625000000000002 12.075 12.075
552 2 8.625000000000002 12.075 15.525
553 3 8.625000000000002 12.075 18.975
554 2 8.625000000000002 12.075 22.425
555 3 8.625000000000002 15.525 1.725
556 2 8.625000000000002 15.525 12.075
557 2 8.625000000000002 15.525 15.525
558 5 8.625000000000002 15.525 18.975
559 5 8.625000000000002 15.525 29.325
560 2 8.625000000000002 15.525 32.77500000000001
561 1 8.625000000000002 18.975 12.075
562 2 8.625000000000002 18.975 15.525
563 3 8.625000000000002 22.425 12.075
564 5 8.625000000000002 22.425 29.325
565 3 8.625000000000002 22.425 32.77500000000001
566 3 8.625000000000002 29.325 1.725000000000001
567 3 8.625000000000002 29.325 5.174999999999997
568 1 8.625000000000002 29.325 15.525
569 2 8.625000000000002 29.325 22.425
570 4 8.625000000000002 32.77500000000001 5.174999999999997
571 4 8.625000000000002 32.77500000000001 15.525
572 1 8.625000000000002 32.77500000000001 22.425
573 5 8.625000000000004 1.724999999999998 32.77500000000001
574 2 8.625000000000004 12.075 32.775
575 2 8.625000000000004 18.975 32.77500000000001
576 3 8.625000000000004 29.325 32.775
577 2 8.625000000000004 32.77500000000001 1.724999999999998
578 5 8.625000000000004 32.77500000000001 12.075
579 2 8.625000000000004 32.77500000000001 18.97499999999999
580 4 8.625000000000004 32.77500000000001 29.325
581 2 8.625000000000004 32.77500000000001 32.77500000000001
582 1 10.35 17.25 24.15
583 2 10.35 20.7 20.7
584 5 10.35 24.15 17.25
585 5 10.35 24.15 24.15000000000001
586 5 10.35 1.915134717478395e-15 20.7
587 4 10.35 1.915134717478395e-15 24.15
588 1 10.35 3.450000000000001 6.9
589 1 10.35 3.450000000000001 17.25
590 2 10.35 3.450000000000001 20.7
591 1 10.35 3.450000000000001 24.15
592 1 10.35 6.9 3.450000000000001
593 1 10.35 6.9 6.9
594 1 10.35 6.9 13.8
595 4 10.35 6.9 17.25
596 4 10.35 6.9 20.7
597 3 10.35 6.9 24.15
598 2 10.35 13.8 6.9
599 2 10.35 13.8 24.15
600 1 10.35 13.8 27.6
601 5 10.35 17.25 3.449999999999999
602 3 10.35 17.25 6.900000000000002
603 1 10.35 17.25 20.7
604 4 10.35 20.7 1.915134717478395e-15
605 4 10.35 20.7 3.450000000000001
606 1 10.35 20.7 6.9
607 5 10.35 20.7 17.25
608 3 10.35 20.7 24.15
609 3 10.35 20.7 27.6
610 3 10.35 24.15 0
611 2 10.35 24.15 3.450000000000003
612 1 10.35 24.15 6.899999999999999
613 3 10.35 24.15 13.8
614 5 10.35 24.15 20.7
615 5 10.35 27.6 13.8
616 5 10.35 27.6 20.7
617 1 10.35 0 0
618 1 10.35 0 3.449999999999999
619 2 10.35 0 10.35
620 5 10.35 0 13.8
621 3 10.35 0 17.25
622 4 10.35 0 27.6
623 5 10.35 9.575673587391975e-16 6.899999999999999
624 2 10.35 3.449999999999999 10.35
625 3 10.35 3.449999999999999 13.8
626 1 10.35 3.449999999999999 27.6
627 3 10.35 3.45 0
628 2 10.35 3.45 3.450000000000001
629 1 10.35 6.899999999999999 10.35
630 4 10.35 6.899999999999999 27.6
631 3 10.35 6.899999999999999 31.05
632 2 10.35 6.899999999999999 0
633 1 10.35 10.35 0
634 2 10.35 10.35 3.449999999999999
635 3 10.35 10.35 6.899999999999999
636 5 10.35 10.35 10.35
637 5 10.35 10.35 13.8
638 3 10.35 10.35 17.25
639 3 10.35 10.35 20.7
640 3 10.35 10.35 24.15
641 4 10.35 10.35 27.6
642 1 10.35 10.35 31.05
643 5 10.35 13.8 0
644 4 10.35 13.8 3.449999999999999
645 3 10.35 13.8 10.35
646 1 10.35 13.8 13.8
647 5 10.35 13.8 17.25
648 5 10.35 13.8 20.7
649 5 10.35 17.25 0
650 4 10.35 17.25 10.35
651 5 10.35 17.25 13.8
652 1 10.35 17.25 17.25
653 1 10.35 17.25 27.6
654 5 10.35 17.25 31.05000000000001
655 3 10.35 20.7 10.35
656 5 10.35 20.7 13.8
657 3 10.35 24.15 10.35
658 4 10.35 24.15 27.6
659 2 10.35 24.15 31.05
660 2 10.35 27.6 0
661 1 10.35 27.6 3.449999999999999
662 4 10.35 27.6 6.899999999999999
663 1 10.35 27.6 10.35
664 5 10.35 27.6 17.25
665 4 10.35 27.6 24.15
666 1 10.35 27.6 27.6
667 5 10.35 27.6 31.05
668 5 10.35 31.05 6.899999999999999
669 5 10.35 31.05 10.35
670 5 10.35 31.05 17.25
671 4 10.35 31.05 24.15
672 5 10.35 31.05 27.6
673 2 10.35 3.449999999999998 31.05
674 3 10.35 13.8 31.05
675 3 10.35 20.7 31.05
676 3 10.35 31.05 0
677 3 10.35 31.05 3.449999999999995
678 2 10.35 31.05 13.8
679 5 10.35 31.05 20.7
680 3 10.35 34.5 31.05
681 5 10.35 31.05 31.05
682 1 12.075 18.975 22.425
683 2 12.075 22.425 18.975
684 2 12.075 1.725000000000001 5.174999999999999
685 3 12.075 1.725000000000001 18.975
686 3 12.075 1.725000000000001 22.425
687 2 12.075 5.175 1.725000000000001
688 5 12.075 5.175000000000001 5.175000000000001
689 2 12.075 5.175000000000001 15.525
690 1 12.075 5.175000000000001 18.975
691 5 12.075 5.175000000000001 22.425
692 4 12.075 5.175000000000001 32.77500000000001
693 3 12.075 8.625000000000004 32.775
694 5 12.075 15.525 5.175000000000001
695 4 12.075 15.525 22.425
696 1 12.075 15.525 25.875
697 2 12.075 15.525 32.77500000000001
698 2 12.075 18.975 1.725
699 2 12.075 18.975 5.175000000000002
700 1 12.075 18.975 18.975
701 3 12.075 22.425 1.725000000000001
702 1 12.075 22.425 5.175000000000001
703 5 12.075 22.425 15.525
704 2 12.075 22.425 22.425
705 4 12.075 22.425 25.875
706 3 12.075 22.425 32.77500000000001
707 3 12.075 25.875 15.525
708 5 12.075 25.875 22.425
709 2 12.075 25.875 32.775
710 3 12.075 32.77500000000001 5.175000000000001
711 1 12.075 32.77500000000001 8.625000000000004
712 5 12.075 32.77500000000001 15.525
713 5 12.075 32.77500000000001 22.425
714 3 12.075 32.77500000000001 25.875
715 1 12.075 32.77500000000001 32.77500000000001
716 5 12.075 1.725 1.725
717 5 12.075 1.725 8.625000000000002
718 5 12.075 1.725 12.075
719 1 12.075 1.725 15.525
720 1 12.075 1.725 25.875
721 1 12.075 1.725 32.775
722 5 12.075 5.174999999999999 8.625
723 5 12.075 5.174999999999999 12.075
724 3 12.075 5.174999999999999 25.875
725 2 12.075 8.625000000000002 1.725
726 1 12.075 8.625000000000002 5.174999999999999
727 1 12.075 8.625000000000002 12.075
728 2 12.075 8.625000000000002 15.525
729 1 12.075 8.625000000000002 18.975
730 2 12.075 8.625000000000002 22.425
731 3 12.075 12.075 1.725
732 4 12.075 12.075 5.174999999999999
733 3 12.075 12.075 8.625000000000002
734 4 12.075 12.075 12.075
735 3 12.075 12.075 15.525
736 2 12.075 12.075 18.975
737 1 12.075 12.075 22.425
738 3 12.075 12.075 25.875
739 1 12.075 12.075 29.325
740 3 12.075 12.075 32.775
741 4 12.075 15.525 1.725
742 1 12.075 15.525 8.625000000000004
743 2 12.075 15.525 12.075
744 3 12.075 15.525 15.525
745 3 12.075 15.525 18.975
746 3 12.075 18.975 8.625000000000002
747 4 12.075 18.975 12.075
748 4 12.075 18.975 15.525
749 1 12.075 18.975 25.87500000000001
750 4 12.075 18.975 29.32500000000001
751 1 12.075 18.975 32.775
752 4 12.075 22.425 8.625
753 4 12.075 22.425 12.075
754 2 12.075 25.875 1.725000000000001
755 3 12.075 25.875 5.174999999999997
756 3 12.075 25.875 12.075
757 2 12.075 25.875 18.975
758 5 12.075 29.325 12.075
759 5 12.075 29.325 18.975
760 2 12.075 32.775 1.724999999999998
761 4 12.075 32.775 12.075
762 5 12.075 32.775 18.975
763 2 12.075 1.724999999999998 29.325
764 3 12.075 5.174999999999997 29.325
765 5 12.075 8.625 8.625
766 4 12.075 8.625 25.875
767 4 12.075 8.625 29.325
768 2 12.075 15.525 29.325
769 1 12.075 22.425 29.325
770 5 12.075 25.875 8.625
771 1 12.075 25.875 25.875
772 3 12.075 25.875 29.325
773 4 12.075 29.325 1.724999999999998
774 3 12.075 29.325 5.174999999999997
775 1 12.075 29.325 8.625
776 1 12.075 29.325 15.525
777 1 12.075 29.325 22.425
778 4 12.075 29.325 25.875
779 4 12.075 29.325 29.325
780 1 12.075 29.325 32.775
781 5 12.075 32.775 29.325
782 2 13.8 20.7 20.7
783 1 13.8 1.915134717478395e-15 20.7
784 4 13.8 3.450000000000001 17.25
785 1 13.8 3.450000000000001 20.7
786 1 13.8 10.35 31.05
787 2 13.8 17.25 3.450000000000001
788 4 13.8 17.25 20.7
789 2 13.8 17.25 24.15000000000001
790 3 13.8 17.25 31.05
791 1 13.8 20.7 0
792 1 13.8 20.7 3.450000000000003
793 4 13.8 20.7 17.25
794 4 13.8 24.15000000000001 17.25
795 1 13.8 31.05 10.35
796 4 13.8 31.05 17.25
797 2 13.8 0 0
798 4 13.8 0 3.449999999999999
799 3 13.8 0 10.35
800 3 13.8 0 13.8
801 2 13.8 0 17.25
802 5 13.8 0 24.15000000000001
803 4 13.8 0 31.05
804 3 13.8 3.449999999999999 0
805 2 13.8 3.449999999999999 6.900000000000002
806 2 13.8 3.449999999999999 10.35
807 5 13.8 3.449999999999999 13.8
808 5 13.8 3.449999999999999 24.15
809 5 13.8 3.449999999999999 31.05
810 2 13.8 3.45 3.449999999999999
811 2 13.8 6.900000000000001 0
812 4 13.8 6.900000000000002 3.449999999999999
813 1 13.8 6.900000000000002 13.8
814 5 13.8 6.900000000000002 17.25
815 3 13.8 6.900000000000002 20.7
816 1 13.8 6.900000000000002 31.05
817 1 13.8 10.35 0
818 3 13.8 10.35 3.449999999999999
819 1 13.8 10.35 10.35
820 4 13.8 10.35 13.8
821 5 13.8 10.35 17.25
822 5 13.8 10.35 20.7
823 5 13.8 13.8 0
824 3 13.8 13.8 3.449999999999999
825 2 13.8 13.8 6.900000000000002
826 2 13.8 13.8 10.35
827 4 13.8 13.8 13.8
828 1 13.8 13.8 17.25
829 1 13.8 13.8 20.7
830 4 13.8 13.8 24.15
831 5 13.8 13.8 27.6
832 1 13.8 13.8 31.05
833 2 13.8 17.25 0
834 5 13.8 17.25 6.900000000000004
835 1 13.8 17.25 10.35
836 4 13.8 17.25 13.8
837 5 13.8 17.25 17.25
838 3 13.8 20.7 6.900000000000002
839 1 13.8 20.7 10.35
840 3 13.8 20.7 13.8
841 3 13.8 20.7 24.15000000000001
842 2 13.8 20.7 27.60000000000001
843 1 13.8 20.7 31.05
844 2 13.8 24.15 0
845 4 13.8 24.15 3.449999999999999
846 2 13.8 24.15 13.8
847 4 13.8 24.15 20.7
848 4 13.8 24.15 24.15
849 4 13.8 24.15 31.05
850 3 13.8 27.6 13.8
851 2 13.8 27.6 20.7
852 3 13.8 27.6 31.05
853 2 13.8 31.05 0
854 5 13.8 31.05 3.449999999999999
855 4 13.8 31.05 6.900000000000002
856 2 13.8 31.05 13.8
857 3 13.8 31.05 20.7
858 5 13.8 31.05 24.15
859 4 13.8 31.05 27.6
860 3 13.8 31.05 31.05
861 3 13.8 34.5 6.9
862 1 13.8 3.449999999999998 27.6
863 3 13.8 6.9 6.899999999999999
864 2 13.8 6.9 10.35
865 1 13.8 6.9 24.15
866 2 13.8 10.35 6.9
867 4 13.8 10.35 24.15
868 2 13.8 10.35 27.6
869 5 13.8 17.25 27.6
870 5 13.8 24.15 6.899999999999999
871 1 13.8 24.15 10.35
872 5 13.8 27.6 0
873 2 13.8 27.6 3.449999999999995
874 4 13.8 27.6 10.35
875 5 13.8 27.6 17.25
876 2 13.8 34.5 27.6
877 4 13.8 6.899999999999999 27.6
878 3 13.8 24.15 27.6
879 2 13.8 27.6 6.899999999999999
880 4 13.8 27.6 24.15
881 2 13.8 27.6 27.6
882 4 15.525 1.725000000000001 18.975
883 1 15.525 12.075 29.325
884 2 15.525 18.975 1.725000000000001
885 3 15.525 18.975 18.975
886 4 15.525 18.975 22.425
887 1 15.525 18.975 29.325
888 1 15.525 22.425 18.975
889 1 15.525 29.325 12.075
890 2 15.525 29.325 18.975
891 4 15.525 29.325 29.325
892 2 15.525 1.725 1.725
893 1 15.525 1.725 8.625
894 4 15.525 1.725 12.075
895 1 15.525 1.725 15.525
896 4 15.525 1.725 22.425
897 4 15.525 1.725 29.325
898 3 15.525 5.175000000000002 15.525
899 4 15.525 5.175000000000002 18.975
900 1 15.525 8.625000000000002 1.725
901 5 15.525 8.625000000000002 12.075
902 5 15.525 8.625000000000002 15.525
903 4 15.525 8.625000000000002 18.975
904 4 15.525 8.625000000000002 29.325
905 1 15.525 8.625000000000002 32.77500000000001
906 2 15.525 12.075 1.725
907 4 15.525 12.075 8.625000000000004
908 3 15.525 12.075 12.075
909 4 15.525 12.075 15.525
910 3 15.525 12.075 18.975
911 4 15.525 15.525 1.725
912 2 15.525 15.525 5.175000000000002
913 3 15.525 15.525 8.625000000000002
914 5 15.525 15.525 12.075
915 5 15.525 15.525 15.525
916 4 15.525 15.525 18.975
917 3 15.525 15.525 22.425
918 1 15.525 15.525 25.87500000000001
919 2 15.525 15.525 29.325
920 3 15.525 15.525 32.77500000000001
921 3 15.525 18.975 5.175000000000004
922 2 15.525 18.975 8.625
923 3 15.525 18.975 12.075
924 5 15.525 18.975 15.525
925 2 15.525 22.425 1.725000000000001
926 1 15.525 22.425 15.525
927 4 15.525 25.87500000000001 15.525
928 2 15.525 29.325 1.724999999999998
929 1 15.525 29.325 8.625000000000004
930 3 15.525 29.325 15.525
931 5 15.525 32.77500000000001 8.625000000000004
932 5 15.525 32.77500000000001 15.525
933 5 15.525 1.724999999999998 25.875
934 4 15.525 1.724999999999998 32.77500000000001
935 1 15.525 1.724999999999999 5.175000000000001
936 1 15.525 5.175000000000001 5.175000000000001
937 1 15.525 5.175000000000001 8.625
938 3 15.525 5.175000000000001 12.075
939 3 15.525 5.175000000000001 22.425
940 1 15.525 5.175000000000001 29.325
941 5 15.525 5.175000000000001 32.775
942 2 15.525 5.175000000000002 1.724999999999998
943 1 15.525 8.625 5.174999999999999
944 4 15.525 8.625 8.625000000000002
945 3 15.525 8.625 22.425
946 2 15.525 12.075 5.175000000000001
947 1 15.525 12.075 22.425
948 5 15.525 12.075 25.875
949 2 15.525 12.075 32.77500000000001
950 5 15.525 18.975 25.875
951 5 15.525 18.975 32.77500000000001
952 1 15.525 22.425 5.175000000000001
953 4 15.525 22.425 8.625
954 4 15.525 22.425 12.075
955 1 15.525 22.425 22.425
956 4 15.525 22.425 25.87500000000001
957 4 15.525 22.425 29.325
958 2 15.525 22.425 32.775
959 1 15.525 25.875 1.724999999999998
960 2 15.525 25.875 12.075
961 5 15.525 25.875 18.97499999999999
962 4 15.525 25.875 22.425
963 3 15.525 25.875 29.325
964 2 15.525 25.875 32.77500000000001
965 3 15.525 29.325 5.175000000000001
966 4 15.525 29.325 22.425
967 5 15.525 29.325 25.875
968 3 15.525 29.325 32.77500000000001
969 5 15.525 32.77500000000001 1.724999999999998
970 3 15.525 32.77500000000001 5.175000000000001
971 3 15.525 32.77500000000001 12.075
972 1 15.525 32.77500000000001 18.975
973 1 15.525 32.77500000000001 22.425
974 4 15.525 32.77500000000001 25.875
975 4 15.525 32.77500000000001 29.325
976 5 15.525 32.77500000000001 32.77500000000001
977 2 15.525 5.174999999999999 25.875
978 1 15.525 8.624999999999998 25.875
979 3 15.525 25.875 5.174999999999997
980 2 15.525 25.875 8.625
981 3 15.52500000000001 25.875 25.875
982 1 17.25 13.8 27.6
983 2 17.25 27.6 13.8
984 3 17.25 0 0
985 5 17.25 0 6.900000000000002
986 1 17.25 0 10.35
987 4 17.25 0 13.8
988 5 17.25 0 17.25
989 4 17.25 0 20.7
990 4 17.25 0 27.6
991 1 17.25 3.450000000000001 6.899999999999999
992 3 17.25 3.450000000000001 10.35
993 1 17.25 3.450000000000001 13.8
994 5 17.25 3.450000000000001 20.7
995 2 17.25 3.450000000000001 27.6
996 3 17.25 3.450000000000001 34.5
997 1 17.25 3.450000000000003 17.25
998 1 17.25 6.9 3.450000000000001
999 1 17.25 6.9 6.9
1000 4 17.25 6.9 10.35
1001 2 17.25 6.9 20.7
1002 1 17.25 6.9 27.59999999999999
1003 5 17.25 6.9 31.05
1004 1 17.25 6.900000000000001 34.5
1005 3 17.25 6.900000000000002 13.8
1006 3 17.25 6.900000000000002 17.25
1007 4 17.25 10.35 3.449999999999999
1008 4 17.25 10.35 6.900000000000002
1009 3 17.25 10.35 20.7
1010 1 17.25 10.35 0
1011 4 17.25 10.35 10.35
1012 1 17.25 10.35 13.8
1013 3 17.25 10.35 17.25
1014 2 17.25 10.35 27.6
1015 3 17.25 10.35 31.05000000000001
1016 2 17.25 13.8 3.450000000000001
1017 2 17.25 13.8 20.7
1018 5 17.25 13.8 24.15000000000001
1019 5 17.25 13.8 31.05
1020 4 17.25 13.8 0
1021 1 17.25 13.8 6.900000000000004
1022 5 17.25 13.8 10.35
1023 2 17.25 13.8 13.8
1024 1 17.25 13.8 17.25
1025 5 17.25 17.25 0
1026 5 17.25 17.25 3.450000000000003
1027 1 17.25 17.25 6.900000000000002
1028 5 17.25 17.25 10.35
1029 3 17.25 17.25 13.8
1030 3 17.25 17.25 17.25
1031 2 17.25 17.25 20.7
1032 3 17.25 17.25 24.15000000000001
1033 3 17.25 17.25 27.6
1034 4 17.25 17.25 31.05
1035 3 17.25 20.7 0
1036 4 17.25 20.7 3.450000000000003
1037 1 17.25 20.7 6.899999999999999
1038 4 17.25 20.7 10.35
1039 4 17.25 20.7 13.8
1040 3 17.25 20.7 17.25
1041 2 17.25 20.7 20.7
1042 4 17.25 20.7 27.6
1043 3 17.25 24.15000000000001 0
1044 2 17.25 24.15000000000001 13.8
1045 3 17.25 24.15000000000001 17.25
1046 5 17.25 27.6 0
1047 2 17.25 27.6 3.449999999999999
1048 4 17.25 27.6 6.900000000000002
1049 1 17.25 27.6 10.35
1050 4 17.25 27.6 17.25
1051 4 17.25 27.6 20.7
1052 3 17.25 27.6 27.6
1053 2 17.25 27.6 31.05000000000001
1054 1 17.25 31.05 6.900000000000002
1055 5 17.25 31.05 10.35
1056 2 17.25 31.05 13.8
1057 3 17.25 31.05 17.25
1058 1 17.25 31.05 27.6
1059 5 17.25 31.05 34.49999999999999
1060 4 17.25 34.5 3.450000000000001
1061 5 17.25 34.5 24.15000000000001
1062 1 17.25 34.5 31.05
1063 2 17.25 3.449999999999999 24.15
1064 3 17.25 3.449999999999999 31.05
1065 1 17.25 3.45 3.449999999999999
1066 4 17.25 6.899999999999999 24.15
1067 5 17.25 10.35 24.15
1068 4 17.25 20.7 24.15
1069 2 17.25 20.7 31.05
1070 3 17.25 24.15 3.449999999999999
1071 2 17.25 24.15 6.899999999999999
1072 2 17.25 24.15 10.35
1073 2 17.25 24.15 20.7
1074 5 17.25 24.15 24.15000000000001
1075 4 17.25 24.15 27.59999999999999
1076 3 17.25 24.15 31.05
1077 4 17.25 27.6 24.15
1078 5 17.25 31.05 3.449999999999999
1079 5 17.25 31.05 20.7
1080 4 17.25 31.05 24.15
1081 5 17.25 31.05 31.05
1082 4 18.975 8.625000000000004 32.77500000000001
1083 5 18.975 15.525 25.875
1084 5 18.975 15.525 32.77500000000001
1085 2 18.975 25.875 15.525
1086 2 18.975 25.875 32.77500000000001
1087 5 18.975 32.77500000000001 8.625
1088 3 18.975 32.77500000000001 15.52500000000001
1089 5 18.975 32.77500000000001 25.875
1090 2 18.975 32.77500000000001 32.77500000000001
1091 1 18.975 1.725 1.725
1092 3 18.975 1.725 22.425
1093 5 18.975 1.725 29.325
1094 1 18.975 1.725000000000001 5.175000000000001
1095 4 18.975 1.725000000000001 8.625
1096 2 18.975 1.725000000000001 12.075
1097 3 18.975 1.725000000000001 15.525
1098 5 18.975 1.725000000000001 18.975
1099 5 18.975 1.725000000000001 25.875
1100 1 18.975 1.725000000000001 32.775
1101 2 18.975 5.174999999999999 22.425
1102 5 18.975 5.174999999999999 29.325
1103 3 18.975 5.175 1.725
1104 5 18.975 5.175000000000001 5.174999999999999
1105 2 18.975 5.175000000000001 8.625000000000002
1106 1 18.975 5.175000000000001 12.075
1107 1 18.975 5.175000000000001 18.975
1108 5 18.975 5.175000000000001 25.875
1109 1 18.975 5.175000000000002 15.525
1110 1 18.975 5.175000000000002 32.775
1111 4 18.975 8.624999999999998 22.425
1112 4 18.975 8.625 1.725000000000001
1113 2 18.975 8.625 5.175000000000001
1114 5 18.975 8.625 8.625
1115 4 18.975 8.625 18.975
1116 1 18.975 8.625 25.875
1117 1 18.975 8.625 29.325
1118 4 18.975 8.625000000000002 12.075
1119 5 18.975 8.625000000000002 15.525
1120 4 18.975 12.075 22.425
1121 3 18.975 12.075 1.725
1122 5 18.975 12.075 5.175000000000002
1123 2 18.975 12.075 18.975
1124 1 18.975 12.075 8.625000000000002
1125 3 18.975 12.075 12.075
1126 1 18.975 12.075 15.525
1127 1 18.975 12.075 25.87500000000001
1128 1 18.975 12.075 29.32500000000001
1129 3 18.975 12.075 32.775
1130 5 18.975 15.525 1.725000000000001
1131 4 18.975 15.525 18.975
1132 2 18.975 15.525 22.425
1133 1 18.975 15.525 29.325
1134 1 18.975 15.525 5.175000000000004
1135 2 18.975 15.525 8.625
1136 5 18.975 15.525 12.075
1137 3 18.975 15.525 15.525
1138 1 18.975 18.975 1.725000000000001
1139 4 18.975 18.975 5.175000000000001
1140 4 18.975 18.975 8.625
1141 2 18.975 18.975 12.075
1142 1 18.975 18.975 15.525
1143 4 18.975 18.975 18.975
1144 5 18.975 18.975 22.425
1145 3 18.975 18.975 25.875
1146 5 18.975 18.975 29.325
1147 3 18.975 18.975 32.775
1148 1 18.975 22.425 1.725000000000001
1149 2 18.975 22.425 5.174999999999997
1150 5 18.975 22.425 8.625
1151 4 18.975 22.425 12.075
1152 4 18.975 22.425 15.525
1153 3 18.975 22.425 18.975
1154 2 18.975 22.425 25.875
1155 4 18.975 22.425 32.775
1156 4 18.975 25.875 1.725000000000001
1157 2 18.975 25.875 5.175000000000001
1158 1 18.975 25.875 8.625
1159 1 18.975 25.875 12.075
1160 3 18.975 25.875 18.975
1161 3 18.975 25.875 22.42500000000001
1162 5 18.975 25.875 25.875
1163 2 18.975 25.875 29.325
1164 4 18.975 29.325 1.724999999999998
1165 3 18.975 29.325 5.175000000000001
1166 3 18.975 29.325 8.625
1167 4 18.975 29.325 12.075
1168 3 18.975 29.325 15.525
1169 5 18.975 29.325 18.975
1170 2 18.975 29.325 25.875
1171 4 18.975 29.325 29.32500000000001
1172 1 18.975 29.325 32.77499999999999
1173 1 18.975 32.775 1.725000000000001
1174 1 18.975 32.775 5.175000000000004
1175 1 18.975 32.775 12.075
1176 2 18.975 32.775 18.975
1177 5 18.975 32.775 22.425
1178 4 18.975 32.775 29.325
1179 2 18.975 22.425 22.425
1180 2 18.975 22.425 29.325
1181 1 18.975 29.325 22.425
1182 4 20.7 10.35 31.05
1183 3 20.7 31.05 10.35
1184 2 20.7 6.900000000000002 13.8
1185 4 20.7 6.900000000000002 31.05
1186 5 20.7 10.35 10.35
1187 5 20.7 10.35 13.8
1188 5 20.7 13.8 6.900000000000002
1189 1 20.7 13.8 10.35
1190 5 20.7 13.8 13.8
1191 5 20.7 13.8 24.15000000000001
1192 5 20.7 13.8 27.60000000000001
1193 1 20.7 13.8 31.05
1194 5 20.7 17.25 24.15
1195 3 20.7 17.25 31.05
1196 3 20.7 24.15 13.8
1197 2 20.7 24.15 17.25
1198 2 20.7 24.15 24.15
1199 1 20.7 24.15 31.05
1200 1 20.7 27.6 13.8
1201 5 20.7 27.6 31.05
1202 3 20.7 31.05 6.900000000000002
1203 2 20.7 31.05 13.8
1204 1 20.7 31.05 17.25
1205 3 20.7 31.05 24.15000000000001
1206 5 20.7 31.05 27.60000000000001
1207 2 20.7 31.05 31.05
1208 2 20.7 0 0
1209 5 20.7 0 3.449999999999999
1210 3 20.7 0 6.899999999999999
1211 3 20.7 0 17.25
1212 3 20.7 0 20.7
1213 5 20.7 0 27.6
1214 4 20.7 1.915134717478395e-15 10.35
1215 4 20.7 1.915134717478395e-15 13.8
1216 2 20.7 1.915134717478395e-15 24.15
1217 4 20.7 1.915134717478395e-15 31.05
1218 4 20.7 3.449999999999999 0
1219 1 20.7 3.449999999999999 20.7
1220 5 20.7 3.449999999999999 27.6
1221 1 20.7 3.450000000000001 3.450000000000001
1222 5 20.7 3.450000000000001 6.9
1223 2 20.7 3.450000000000001 10.35
1224 2 20.7 3.450000000000001 13.8
1225 1 20.7 3.450000000000001 17.25
1226 2 20.7 3.450000000000001 24.15
1227 5 20.7 3.450000000000001 31.05
1228 4 20.7 6.899999999999999 20.7
1229 2 20.7 6.899999999999999 27.6
1230 3 20.7 6.899999999999999 0
1231 2 20.7 6.9 3.449999999999999
1232 1 20.7 6.9 6.900000000000002
1233 5 20.7 6.9 10.35
1234 4 20.7 6.9 17.25
1235 2 20.7 6.9 24.15
1236 3 20.7 10.35 20.7
1237 5 20.7 10.35 1.915134717478395e-15
1238 2 20.7 10.35 3.450000000000001
1239 3 20.7 10.35 6.9
1240 3 20.7 10.35 17.25
1241 4 20.7 10.35 24.15
1242 3 20.7 10.35 27.6
1243 5 20.7 13.8 20.7
1244 2 20.7 13.8 0
1245 1 20.7 13.8 3.450000000000003
1246 5 20.7 13.8 17.25
1247 4 20.7 17.25 0
1248 3 20.7 17.25 3.450000000000003
1249 5 20.7 17.25 6.899999999999999
1250 2 20.7 17.25 10.35
1251 1 20.7 17.25 13.8
1252 5 20.7 17.25 17.25
1253 1 20.7 17.25 20.7
1254 5 20.7 17.25 27.6
1255 4 20.7 20.7 0
1256 2 20.7 20.7 3.449999999999999
1257 3 20.7 20.7 6.899999999999999
1258 1 20.7 20.7 10.35
1259 2 20.7 20.7 13.8
1260 3 20.7 20.7 17.25
1261 1 20.7 20.7 20.7
1262 1 20.7 20.7 24.15
1263 3 20.7 20.7 27.6
1264 3 20.7 20.7 31.05
1265 4 20.7 24.15 3.83026943495679e-15
1266 5 20.7 24.15 3.449999999999999
1267 5 20.7 24.15 6.900000000000002
1268 2 20.7 24.15 10.35
1269 4 20.7 24.15 20.7
1270 3 20.7 24.15 27.6
1271 2 20.7 27.6 0
1272 5 20.7 27.6 3.449999999999999
1273 2 20.7 27.6 6.899999999999999
1274 2 20.7 27.6 10.35
1275 5 20.7 27.6 17.25
1276 2 20.7 27.6 20.70000000000001
1277 5 20.7 27.6 24.15
1278 1 20.7 27.6 27.6
1279 3 20.7 31.05 0
1280 1 20.7 31.05 3.450000000000003
1281 5 20.7 31.05 20.7
1282 3 22.425 8.625000000000002 12.075
1283 2 22.425 8.625000000000002 29.325
1284 5 22.425 8.625000000000002 32.77500000000001
1285 4 22.425 12.075 8.625
1286 5 22.425 12.075 12.075
1287 1 22.425 12.075 29.325
1288 1 22.425 29.325 8.625
1289 5 22.425 29.325 12.075
1290 3 22.425 29.325 29.325
1291 4 22.425 32.77500000000001 8.625
1292 4 22.425 1.725000000000001 8.625000000000002
1293 5 22.425 1.725000000000001 12.075
1294 4 22.425 1.725000000000001 22.425
1295 1 22.425 1.725000000000001 29.325
1296 2 22.425 5.175000000000001 1.725000000000001
1297 4 22.425 5.175000000000001 5.175000000000001
1298 4 22.425 5.175000000000001 8.625
1299 3 22.425 5.175000000000001 12.075
1300 5 22.425 5.175000000000001 15.525
1301 2 22.425 5.175000000000001 22.425
1302 3 22.425 5.175000000000001 29.325
1303 5 22.425 5.175000000000001 32.77500000000001
1304 3 22.425 8.625 1.725
1305 2 22.425 8.625 5.175000000000002
1306 5 22.425 8.625 8.624999999999998
1307 1 22.425 8.625 15.525
1308 1 22.425 8.625 22.425
1309 4 22.425 12.075 1.725000000000001
1310 1 22.425 12.075 5.175000000000001
1311 5 22.425 12.075 15.525
1312 3 22.425 12.075 22.425
1313 1 22.425 12.075 25.875
1314 5 22.425 12.075 32.77500000000001
1315 2 22.425 15.525 5.175000000000001
1316 3 22.425 15.525 8.625
1317 2 22.425 15.525 12.075
1318 1 22.425 15.525 22.425
1319 2 22.425 15.525 25.87500000000001
1320 1 22.425 15.525 29.325
1321 2 22.425 15.525 32.775
1322 5 22.425 18.975 22.425
1323 4 22.425 18.975 29.325
1324 4 22.425 22.425 1.725000000000001
1325 2 22.425 22.425 5.175000000000001
1326 3 22.425 22.425 8.625
1327 3 22.425 22.425 12.075
1328 1 22.425 22.425 15.525
1329 2 22.425 22.425 18.975
1330 3 22.425 22.425 22.425
1331 1 22.425 22.425 25.875
1332 5 22.425 22.425 29.325
1333 3 22.425 22.425 32.77500000000001
1334 3 22.425 25.875 12.075
1335 5 22.425 25.875 15.525
1336 5 22.425 25.875 22.425
1337 2 22.425 25.875 29.325
1338 1 22.425 25.875 32.77500000000001
1339 1 22.425 29.325 1.725000000000001
1340 3 22.425 29.325 5.175000000000001
1341 4 22.425 29.325 15.52500000000001
1342 2 22.425 29.325 18.97500000000001
1343 5 22.425 29.325 22.425
1344 3 22.425 29.325 25.875
1345 3 22.425 29.325 32.77500000000001
1346 4 22.425 32.77500000000001 5.175000000000001
1347 5 22.425 32.77500000000001 12.075
1348 5 22.425 32.77500000000001 15.525
1349 4 22.425 32.77500000000001 22.425
1350 4 22.425 32.77500000000001 25.87500000000001
1351 4 22.425 32.77500000000001 29.325
1352 2 22.425 32.77500000000001 32.775
1353 2 22.425 1.725 1.725
1354 1 22.425 1.725 5.174999999999999
1355 5 22.425 1.725 15.525
1356 3 22.425 1.725 18.975
1357 4 22.425 1.725 25.875
1358 2 22.425 1.725 32.775
1359 1 22.425 5.174999999999999 18.975
1360 2 22.425 5.174999999999999 25.875
1361 3 22.425 8.624999999999998 18.975
1362 5 22.425 8.624999999999998 25.87500000000001
1363 4 22.425 12.075 18.975
1364 1 22.425 15.525 18.975
1365 5 22.425 15.525 1.725000000000001
1366 3 22.425 15.525 15.525
1367 2 22.425 18.975 1.725000000000001
1368 1 22.425 18.975 5.174999999999997
1369 4 22.425 18.975 8.625
1370 2 22.425 18.975 12.075
1371 4 22.425 18.975 15.525
1372 2 22.425 18.975 18.975
1373 4 22.425 18.975 25.875
1374 3 22.425 18.975 32.775
1375 2 22.425 25.875 1.724999999999998
1376 2 22.425 25.875 5.175000000000001
1377 1 22.425 25.875 8.624999999999996
1378 3 22.425 25.875 18.975
1379 3 22.425 25.875 25.875
1380 3 22.425 32.775 1.725000000000001
1381 2 22.425 32.775 18.975
1382 2 24.15 1.915134717478395e-15 6.9
1383 1 24.15 1.915134717478395e-15 10.35
1384 2 24.15 1.915134717478395e-15 20.7
1385 5 24.15 1.915134717478395e-15 27.59999999999999
1386 5 24.15 3.450000000000001 6.900000000000002
1387 3 24.15 3.450000000000001 10.35
1388 5 24.15 3.450000000000001 20.7
1389 4 24.15 3.450000000000001 27.6
1390 5 24.15 6.9 1.915134717478395e-15
1391 5 24.15 6.9 3.450000000000001
1392 2 24.15 6.9 6.9
1393 5 24.15 6.9 10.35
1394 5 24.15 6.9 13.8
1395 5 24.15 6.9 20.7
1396 1 24.15 6.9 27.6
1397 4 24.15 6.9 31.05
1398 4 24.15 10.35 0
1399 3 24.15 10.35 3.450000000000003
1400 1 24.15 10.35 6.899999999999999
1401 3 24.15 10.35 13.8
1402 4 24.15 10.35 20.7
1403 5 24.15 10.35 10.35
1404 3 24.15 10.35 27.6
1405 1 24.15 10.35 31.05
1406 2 24.15 13.8 6.899999999999999
1407 5 24.15 13.8 10.35
1408 1 24.15 13.8 27.6
1409 3 24.15 20.7 3.83026943495679e-15
1410 2 24.15 20.7 3.449999999999999
1411 2 24.15 20.7 6.900000000000002
1412 4 24.15 20.7 10.35
1413 5 24.15 20.7 20.7
1414 4 24.15 20.7 27.6
1415 5 24.15 27.6 0
1416 1 24.15 27.6 3.450000000000003
1417 4 24.15 27.6 6.899999999999999
1418 3 24.15 27.6 10.35
1419 5 24.15 27.6 13.8
1420 2 24.15 27.6 20.7
1421 1 24.15 27.6 27.6
1422 2 24.15 27.6 31.05
1423 2 24.15 31.05 6.899999999999999
1424 1 24.15 31.05 10.35
1425 1 24.15 31.05 27.6
1426 1 24.15 0 0
1427 4 24.15 0 3.449999999999999
1428 3 24.15 0 13.8
1429 4 24.15 0 24.15
1430 1 24.15 0 31.05
1431 4 24.15 3.449999999999999 0
1432 3 24.15 3.449999999999999 3.449999999999999
1433 1 24.15 3.449999999999999 13.8
1434 5 24.15 3.449999999999999 17.25
1435 5 24.15 3.449999999999999 24.15
1436 3 24.15 3.449999999999999 31.05
1437 4 24.15 6.899999999999999 17.25000000000001
1438 3 24.15 6.899999999999999 24.15000000000001
1439 1 24.15 10.35 17.25
1440 1 24.15 10.35 24.15000000000001
1441 3 24.15 13.8 0
1442 3 24.15 13.8 3.449999999999999
1443 3 24.15 13.8 13.8
1444 5 24.15 13.8 20.7
1445 5 24.15 13.8 24.15
1446 1 24.15 13.8 31.05
1447 4 24.15 17.25 3.449999999999999
1448 5 24.15 17.25 6.899999999999999
1449 4 24.15 17.25 10.35
1450 5 24.15 17.25 20.7
1451 2 24.15 17.25 24.15000000000001
1452 5 24.15 17.25 27.59999999999999
1453 2 24.15 17.25 31.05
1454 4 24.15 20.7 13.8
1455 3 24.15 20.7 17.25
1456 2 24.15 20.7 24.15
1457 2 24.15 20.7 31.05
1458 2 24.15 24.15 0
1459 1 24.15 24.15 3.449999999999999
1460 5 24.15 24.15 6.899999999999999
1461 1 24.15 24.15 10.35
1462 5 24.15 24.15 13.8
1463 3 24.15 24.15 17.25
1464 3 24.15 24.15 20.7
1465 4 24.15 24.15 24.15
1466 4 24.15 24.15 27.6
1467 3 24.15 24.15 31.05
1468 5 24.15 27.6 17.25
1469 4 24.15 27.6 24.15000000000001
1470 2 24.15 31.05 0
1471 5 24.15 31.05 3.449999999999999
1472 4 24.15 31.05 13.8
1473 1 24.15 31.05 17.25000000000001
1474 2 24.15 31.05 20.7
1475 2 24.15 31.05 24.15
1476 2 24.15 31.05 31.05
1477 5 24.15000000000001 13.8 17.25
1478 5 24.15000000000001 17.25 0
1479 4 24.15000000000001 17.25 13.8
1480 5 24.15000000000001 17.25 17.25
1481 2 24.15000000000001 34.5 17.25
1482 5 25.875 1.725 1.725
1483 2 25.875 1.725 12.075
1484 5 25.875 1.725 22.425
1485 1 25.875 1.725 29.325
1486 1 25.875 1.725000000000001 5.175000000000001
1487 1 25.875 1.725000000000001 8.625
1488 2 25.875 1.725000000000001 18.975
1489 2 25.875 1.725000000000001 25.875
1490 5 25.875 5.174999999999999 1.725
1491 2 25.875 5.174999999999999 12.075
1492 4 25.875 5.174999999999999 15.525
1493 3 25.875 5.174999999999999 22.425
1494 1 25.875 5.174999999999999 29.325
1495 2 25.875 5.174999999999999 32.77500000000001
1496 3 25.875 5.175000000000001 5.175000000000002
1497 2 25.875 5.175000000000001 8.624999999999998
1498 1 25.875 5.175000000000001 18.975
1499 2 25.875 5.175000000000001 25.875
1500 5 25.875 8.624999999999998 15.52500000000001
1501 5 25.875 8.624999999999998 22.425
1502 1 25.875 8.625 1.725000000000001
1503 4 25.875 8.625 5.175000000000001
1504 2 25.875 8.625 8.625
1505 3 25.875 8.625 12.075
1506 4 25.875 8.625 18.975
1507 1 25.875 8.625 25.875
1508 1 25.875 8.625 29.325
1509 1 25.875 8.625 32.77500000000001
1510 1 25.875 12.075 1.725000000000001
1511 4 25.875 12.075 5.174999999999997
1512 4 25.875 12.075 12.075
1513 4 25.875 12.075 18.975
1514 4 25.875 12.075 8.625
1515 3 25.875 12.075 25.875
1516 5 25.875 12.075 29.325
1517 2 25.875 15.525 5.174999999999997
1518 4 25.875 15.525 8.625
1519 3 25.875 15.52500000000001 25.875
1520 5 25.875 18.975 1.725000000000001
1521 2 25.875 18.975 5.175000000000001
1522 2 25.875 18.975 8.625
1523 4 25.875 18.975 12.075
1524 1 25.875 18.975 18.975
1525 3 25.875 18.975 22.42500000000001
1526 1 25.875 18.975 25.875
1527 3 25.875 18.975 29.325
1528 1 25.875 22.425 1.724999999999998
1529 4 25.875 22.425 5.175000000000001
1530 4 25.875 22.425 8.624999999999996
1531 2 25.875 22.425 18.975
1532 4 25.875 22.425 25.875
1533 4 25.875 25.875 1.725000000000001
1534 2 25.875 25.875 5.175000000000001
1535 4 25.875 25.875 8.625
1536 1 25.875 25.875 12.075
1537 5 25.875 25.875 15.52500000000001
1538 5 25.875 25.875 18.975
1539 1 25.875 25.875 22.425
1540 3 25.875 25.875 25.875
1541 4 25.875 25.875 29.325
1542 3 25.875 25.875 32.77500000000001
1543 1 25.875 29.325 1.725000000000001
1544 4 25.875 29.325 5.174999999999997
1545 2 25.875 29.325 8.625
1546 4 25.875 29.325 12.075
1547 3 25.875 29.325 18.975
1548 4 25.875 29.325 25.875
1549 1 25.875 29.325 29.325
1550 1 25.875 32.77500000000001 5.174999999999997
1551 1 25.875 32.77500000000001 8.625
1552 2 25.875 32.77500000000001 25.875
1553 4 25.875 1.724999999999998 15.525
1554 3 25.875 1.724999999999998 32.77500000000001
1555 1 25.875 12.075 15.525
1556 2 25.875 12.075 22.425
1557 3 25.875 12.075 32.775
1558 2 25.875 15.525 1.724999999999998
1559 2 25.875 15.525 12.075
1560 2 25.875 15.525 18.97499999999999
1561 2 25.875 15.525 22.425
1562 3 25.875 15.525 29.325
1563 1 25.875 15.525 32.77500000000001
1564 5 25.875 18.975 15.525
1565 2 25.875 18.975 32.77500000000001
1566 4 25.875 22.425 12.075
1567 3 25.875 22.425 15.525
1568 2 25.875 22.425 22.425
1569 5 25.875 22.425 29.325
1570 5 25.875 22.425 32.77500000000001
1571 2 25.875 29.325 15.525
1572 5 25.875 29.325 22.425
1573 4 25.875 29.325 32.775
1574 1 25.875 32.77500000000001 1.724999999999998
1575 4 25.875 32.77500000000001 12.075
1576 2 25.875 32.77500000000001 15.52500000000001
1577 1 25.875 32.77500000000001 18.97499999999999
1578 5 25.875 32.77500000000001 22.425
1579 4 25.875 32.77500000000001 29.325
1580 3 25.875 32.77500000000001 32.77500000000001
1581 5 25.87500000000001 15.525 15.525
1582 5 27.6 17.25 24.15
1583 2 27.6 24.15 17.25
1584 3 27.6 24.15 24.15000000000001
1585 3 27.6 0 0
1586 4 27.6 0 3.449999999999999
1587 3 27.6 0 6.899999999999999
1588 5 27.6 0 10.35
1589 1 27.6 0 17.25
1590 1 27.6 0 20.7
1591 4 27.6 0 27.6
1592 5 27.6 1.915134717478395e-15 24.15
1593 1 27.6 3.449999999999998 13.8
1594 2 27.6 3.449999999999998 31.05
1595 3 27.6 3.449999999999999 0
1596 4 27.6 3.449999999999999 10.35
1597 2 27.6 3.449999999999999 20.7
1598 5 27.6 3.449999999999999 27.6
1599 4 27.6 3.450000000000001 3.450000000000001
1600 1 27.6 3.450000000000001 6.9
1601 4 27.6 3.450000000000001 17.25
1602 3 27.6 3.450000000000001 24.15
1603 4 27.6 6.899999999999999 0
1604 3 27.6 6.899999999999999 10.35
1605 3 27.6 6.899999999999999 13.8
1606 5 27.6 6.899999999999999 20.7
1607 5 27.6 6.899999999999999 27.6
1608 2 27.6 6.899999999999999 31.05
1609 2 27.6 6.9 3.450000000000003
1610 1 27.6 6.9 6.899999999999999
1611 5 27.6 6.9 17.25
1612 5 27.6 6.9 24.15
1613 5 27.6 10.35 13.8
1614 4 27.6 10.35 20.7
1615 3 27.6 10.35 0
1616 5 27.6 10.35 3.449999999999999
1617 4 27.6 10.35 6.899999999999999
1618 5 27.6 10.35 10.35
1619 5 27.6 10.35 17.25
1620 5 27.6 10.35 24.15
1621 3 27.6 10.35 27.6
1622 3 27.6 10.35 31.05
1623 4 27.6 13.8 0
1624 2 27.6 13.8 3.449999999999995
1625 4 27.6 13.8 10.35
1626 4 27.6 13.8 17.25
1627 5 27.6 13.8 6.899999999999999
1628 5 27.6 13.8 24.15
1629 3 27.6 13.8 27.6
1630 1 27.6 17.25 13.8
1631 2 27.6 17.25 0
1632 4 27.6 17.25 3.449999999999999
1633 1 27.6 17.25 6.900000000000002
1634 3 27.6 17.25 10.35
1635 5 27.6 17.25 17.25
1636 3 27.6 17.25 20.7
1637 5 27.6 17.25 27.6
1638 1 27.6 17.25 31.05000000000001
1639 3 27.6 20.7 0
1640 2 27.6 20.7 3.449999999999999
1641 5 27.6 20.7 6.899999999999999
1642 3 27.6 20.7 10.35
1643 3 27.6 20.7 17.25
1644 4 27.6 20.7 20.70000000000001
1645 3 27.6 20.7 24.15
1646 5 27.6 20.7 27.6
1647 4 27.6 24.15 0
1648 3 27.6 24.15 3.450000000000003
1649 4 27.6 24.15 6.899999999999999
1650 3 27.6 24.15 10.35
1651 4 27.6 24.15 13.8
1652 4 27.6 24.15 20.7
1653 2 27.6 24.15 27.6
1654 1 27.6 24.15 31.05
1655 5 27.6 27.6 0
1656 4 27.6 27.6 3.449999999999999
1657 4 27.6 27.6 6.899999999999999
1658 4 27.6 27.6 10.35
1659 3 27.6 27.6 13.8
1660 3 27.6 27.6 17.25
1661 3 27.6 27.6 20.7
1662 4 27.6 27.6 24.15
1663 3 27.6 27.6 27.6
1664 2 27.6 27.6 31.05
1665 4 27.6 31.05 0
1666 5 27.6 31.05 3.449999999999995
1667 4 27.6 31.05 6.899999999999999
1668 5 27.6 31.05 10.35
1669 3 27.6 31.05 17.25
1670 4 27.6 31.05 24.15
1671 5 27.6 31.05 27.6
1672 4 27.6 34.5 13.8
1673 3 27.6 34.5 31.05
1674 3 27.6 13.8 13.8
1675 3 27.6 13.8 20.7
1676 2 27.6 13.8 31.05
1677 4 27.6 20.7 13.8
1678 4 27.6 20.7 31.05
1679 2 27.6 31.05 13.8
1680 5 27.6 31.05 20.7
1681 4 27.6 31.05 31.05
1682 2 29.325 1.725000000000001 22.425
1683 5 29.325 5.175000000000001 1.725000000000001
1684 2 29.325 5.175000000000001 5.175000000000001
1685 3 29.325 5.175000000000001 15.525
1686 4 29.325 5.175000000000001 22.425
1687 1 29.325 5.175000000000001 32.77500000000001
1688 4 29.325 8.625000000000004 32.775
1689 2 29.325 15.525 5.175000000000001
1690 3 29.325 15.525 22.425
1691 4 29.325 15.525 25.875
1692 5 29.325 15.525 32.77500000000001
1693 3 29.325 18.975 22.425
1694 2 29.325 22.425 1.725000000000001
1695 3 29.325 22.425 5.175000000000001
1696 1 29.325 22.425 15.52500000000001
1697 4 29.325 22.425 18.97500000000001
1698 3 29.325 22.425 22.425
1699 3 29.325 22.425 25.875
1700 2 29.325 22.425 32.77500000000001
1701 4 29.325 25.875 15.525
1702 5 29.325 25.875 22.425
1703 5 29.325 25.875 32.775
1704 3 29.325 32.77500000000001 5.175000000000001
1705 3 29.325 32.77500000000001 8.625000000000004
1706 2 29.325 32.77500000000001 15.525
1707 1 29.325 32.77500000000001 22.425
1708 1 29.325 32.77500000000001 25.875
1709 1 29.325 32.77500000000001 32.77500000000001
1710 2 29.325 1.724999999999998 12.075
1711 4 29.325 1.724999999999998 29.325
1712 2 29.325 1.725 1.725
1713 3 29.325 1.725 5.174999999999999
1714 5 29.325 1.725 8.625000000000002
1715 1 29.325 1.725 15.525
1716 3 29.325 1.725 18.975
1717 5 29.325 1.725 25.87500000000001
1718 3 29.325 1.725 32.775
1719 5 29.325 5.174999999999997 12.075
1720 5 29.325 5.174999999999997 29.325
1721 5 29.325 5.174999999999999 8.625
1722 2 29.325 5.174999999999999 18.975
1723 1 29.325 5.174999999999999 25.875
1724 5 29.325 8.625 8.625
1725 2 29.325 8.625 12.075
1726 2 29.325 8.625 18.975
1727 4 29.325 8.625 25.875
1728 1 29.325 8.625 29.325
1729 1 29.325 8.625000000000002 1.725000000000001
1730 3 29.325 8.625000000000002 5.174999999999997
1731 5 29.325 8.625000000000002 15.525
1732 3 29.325 8.625000000000002 22.425
1733 4 29.325 12.075 12.075
1734 2 29.325 12.075 18.975
1735 5 29.325 12.075 1.724999999999998
1736 5 29.325 12.075 5.174999999999997
1737 3 29.325 12.075 8.625
1738 1 29.325 12.075 15.525
1739 4 29.325 12.075 22.425
1740 3 29.325 12.075 25.875
1741 3 29.325 12.075 29.325
1742 2 29.325 12.075 32.775
1743 2 29.325 15.525 12.075
1744 1 29.325 15.525 18.975
1745 1 29.325 15.525 29.325
1746 2 29.325 15.525 1.724999999999998
1747 2 29.325 15.525 8.625000000000004
1748 3 29.325 15.525 15.525
1749 2 29.325 18.975 1.724999999999998
1750 2 29.325 18.975 5.175000000000001
1751 4 29.325 18.975 8.625
1752 2 29.325 18.975 12.075
1753 4 29.325 18.975 15.525
1754 4 29.325 18.975 18.975
1755 2 29.325 18.975 25.875
1756 2 29.325 18.975 29.32500000000001
1757 2 29.325 18.975 32.77499999999999
1758 3 29.325 22.425 8.625
1759 1 29.325 22.425 12.075
1760 3 29.325 22.425 29.325
1761 5 29.325 25.875 1.725000000000001
1762 4 29.325 25.875 5.174999999999997
1763 2 29.325 25.875 8.625
1764 3 29.325 25.875 12.075
1765 1 29.325 25.875 18.975
1766 2 29.325 25.875 25.875
1767 4 29.325 25.875 29.325
1768 4 29.325 29.325 1.724999999999998
1769 4 29.325 29.325 5.174999999999997
1770 1 29.325 29.325 8.625
1771 3 29.325 29.325 12.075
1772 3 29.325 29.325 15.525
1773 1 29.325 29.325 18.975
1774 4 29.325 29.325 22.425
1775 5 29.325 29.325 25.875
1776 5 29.325 29.325 29.325
1777 5 29.325 29.325 32.775
1778 2 29.325 32.775 1.724999999999998
1779 4 29.325 32.775 12.075
1780 2 29.325 32.775 18.975
1781 3 29.325 32.775 29.325
1782 3 31.05 1.915134717478395e-15 20.7
1783 4 31.05 3.450000000000001 20.7
1784 4 31.05 20.7 0
1785 4 31.05 20.7 3.450000000000003
1786 3 31.05 20.7 20.7
1787 3 31.05 0 0
1788 3 31.05 0 3.450000000000001
1789 3 31.05 0 13.8
1790 2 31.05 0 24.15000000000001
1791 4 31.05 0 31.05
1792 5 31.05 3.449999999999999 0
1793 1 31.05 3.449999999999999 3.449999999999999
1794 5 31.05 3.449999999999999 6.900000000000002
1795 1 31.05 3.449999999999999 13.8
1796 1 31.05 3.449999999999999 17.25
1797 3 31.05 3.449999999999999 24.15000000000001
1798 1 31.05 3.449999999999999 31.05
1799 4 31.05 6.900000000000002 0
1800 5 31.05 6.900000000000002 3.449999999999999
1801 5 31.05 6.900000000000002 13.8
1802 3 31.05 6.900000000000002 20.7
1803 5 31.05 6.900000000000002 31.05
1804 1 31.05 10.35 31.05
1805 1 31.05 13.8 0
1806 1 31.05 13.8 3.449999999999999
1807 4 31.05 13.8 6.900000000000002
1808 1 31.05 13.8 13.8
1809 3 31.05 13.8 20.7
1810 2 31.05 13.8 24.15
1811 3 31.05 13.8 27.6
1812 1 31.05 13.8 31.05
1813 1 31.05 17.25 3.449999999999999
1814 5 31.05 17.25 20.7
1815 2 31.05 17.25 24.15
1816 1 31.05 17.25 31.05
1817 1 31.05 20.7 6.900000000000002
1818 2 31.05 20.7 13.8
1819 5 31.05 20.7 17.25
1820 3 31.05 20.7 24.15000000000001
1821 5 31.05 20.7 27.60000000000001
1822 1 31.05 20.7 31.05
1823 4 31.05 24.15 0
1824 5 31.05 24.15 3.449999999999999
1825 4 31.05 24.15 13.8
1826 4 31.05 24.15 17.25000000000001
1827 2 31.05 24.15 20.7
1828 3 31.05 24.15 24.15
1829 4 31.05 24.15 31.05
1830 3 31.05 27.6 13.8
1831 4 31.05 27.6 20.7
1832 1 31.05 27.6 31.05
1833 1 31.05 31.05 0
1834 3 31.05 31.05 3.449999999999999
1835 5 31.05 31.05 6.900000000000002
1836 1 31.05 31.05 10.35
1837 5 31.05 31.05 13.8
1838 3 31.05 31.05 17.25
1839 4 31.05 31.05 20.7
1840 1 31.05 31.05 24.15
1841 5 31.05 31.05 27.6
1842 4 31.05 31.05 31.05
1843 1 31.05 3.449999999999998 10.35
1844 4 31.05 3.449999999999998 27.6
1845 5 31.05 6.899999999999999 10.35
1846 2 31.05 6.899999999999999 27.6
1847 1 31.05 6.9 6.899999999999999
1848 3 31.05 6.9 17.25
1849 5 31.05 6.9 24.15
1850 4 31.05 10.35 6.899999999999999
1851 2 31.05 10.35 10.35
1852 3 31.05 10.35 17.25
1853 5 31.05 10.35 24.15
1854 5 31.05 10.35 27.6
1855 5 31.05 10.35 0
1856 5 31.05 10.35 3.449999999999995
1857 5 31.05 10.35 13.8
1858 3 31.05 10.35 20.7
1859 4 31.05 13.8 10.35
1860 4 31.05 13.8 17.25
1861 2 31.05 17.25 6.900000000000002
1862 2 31.05 17.25 10.35
1863 5 31.05 17.25 13.8
1864 2 31.05 17.25 17.25
1865 2 31.05 17.25 27.6
1866 1 31.05 17.25 34.49999999999999
1867 1 31.05 20.7 10.35
1868 2 31.05 24.15 6.899999999999999
1869 1 31.05 24.15 10.35
1870 1 31.05 24.15 27.6
1871 4 31.05 27.6 0
1872 5 31.05 27.6 3.449999999999995
1873 3 31.05 27.6 6.899999999999999
1874 1 31.05 27.6 10.35
1875 4 31.05 27.6 17.25
1876 4 31.05 27.6 24.15
1877 1 31.05 27.6 27.6
1878 5 31.05 34.5 6.9
1879 1 31.05 34.5 10.35
1880 4 31.05 34.5 17.25
1881 1 31.05 34.5 27.6
1882 5 32.775 1.725 1.725000000000001
1883 4 32.775 1.725 12.075
1884 1 32.775 1.725 22.425
1885 5 32.775 1.725 29.325
1886 2 32.775 1.725000000000001 18.975
1887 2 32.775 5.175000000000002 18.975
1888 4 32.775 12.075 1.724999999999998
1889 5 32.775 12.075 12.075
1890 3 32.775 12.075 18.975
1891 3 32.775 12.075 29.325
1892 3 32.775 18.975 1.725000000000001
1893 4 32.775 18.975 5.175000000000004
1894 2 32.775 18.975 12.075
1895 2 32.775 18.975 18.975
1896 3 32.775 18.975 22.425
1897 1 32.775 18.975 29.325
1898 4 32.775 22.425 1.725000000000001
1899 1 32.775 22.425 18.975
1900 4 32.775 29.325 1.724999999999998
1901 4 32.775 29.325 12.075
1902 4 32.775 29.325 18.975
1903 4 32.775 29.325 29.325
1904 1 32.77500000000001 1.724999999999998 5.175000000000001
1905 5 32.77500000000001 1.724999999999998 8.625000000000004
1906 3 32.77500000000001 1.724999999999998 15.525
1907 4 32.77500000000001 1.724999999999998 25.875
1908 4 32.77500000000001 1.724999999999998 32.77500000000001
1909 3 32.77500000000001 5.175000000000001 1.724999999999998
1910 5 32.77500000000001 5.175000000000001 5.175000000000001
1911 3 32.77500000000001 5.175000000000001 12.075
1912 2 32.77500000000001 5.175000000000001 15.525
1913 2 32.77500000000001 5.175000000000001 22.425
1914 1 32.77500000000001 5.175000000000001 29.325
1915 3 32.77500000000001 5.175000000000001 32.775
1916 2 32.77500000000001 8.625000000000004 1.724999999999998
1917 2 32.77500000000001 8.625000000000004 12.075
1918 4 32.77500000000001 8.625000000000004 18.97499999999999
1919 2 32.77500000000001 8.625000000000004 29.325
1920 4 32.77500000000001 8.625000000000004 32.77500000000001
1921 2 32.77500000000001 12.075 5.175000000000001
1922 4 32.77500000000001 12.075 8.625000000000004
1923 1 32.77500000000001 12.075 15.525
1924 3 32.77500000000001 12.075 22.425
1925 2 32.77500000000001 12.075 25.875
1926 5 32.77500000000001 12.075 32.77500000000001
1927 4 32.77500000000001 15.525 1.724999999999998
1928 2 32.77500000000001 15.525 5.175000000000001
1929 2 32.77500000000001 15.525 12.075
1930 2 32.77500000000001 15.525 18.975
1931 1 32.77500000000001 15.525 22.425
1932 2 32.77500000000001 15.525 25.875
1933 1 32.77500000000001 15.525 29.325
1934 1 32.77500000000001 15.525 32.77500000000001
1935 4 32.77500000000001 18.975 8.625
1936 1 32.77500000000001 18.975 15.52500000000001
1937 1 32.77500000000001 18.975 25.875
1938 5 32.77500000000001 18.975 32.77500000000001
1939 5 32.77500000000001 22.425 5.175000000000001
1940 3 32.77500000000001 22.425 12.075
1941 2 32.77500000000001 22.425 15.525
1942 3 32.77500000000001 22.425 22.425
1943 1 32.77500000000001 22.425 25.87500000000001
1944 4 32.77500000000001 22.425 29.325
1945 2 32.77500000000001 22.425 32.775
1946 4 32.77500000000001 25.875 1.724999999999998
1947 5 32.77500000000001 25.875 12.075
1948 4 32.77500000000001 25.875 15.52500000000001
1949 1 32.77500000000001 25.875 18.97499999999999
1950 4 32.77500000000001 25.875 22.425
1951 5 32.77500000000001 25.875 29.325
1952 5 32.77500000000001 25.875 32.77500000000001
1953 2 32.77500000000001 29.325 5.175000000000001
1954 2 32.77500000000001 29.325 8.625000000000004
1955 2 32.77500000000001 29.325 15.525
1956 4 32.77500000000001 29.325 22.425
1957 3 32.77500000000001 29.325 25.875
1958 5 32.77500000000001 29.325 32.77500000000001
1959 2 32.77500000000001 32.77500000000001 1.724999999999998
1960 2 32.77500000000001 32.77500000000001 5.175000000000001
1961 4 32.77500000000001 32.77500000000001 8.625000000000004
1962 4 32.77500000000001 32.77500000000001 12.075
1963 5 32.77500000000001 32.77500000000001 15.525
1964 3 32.77500000000001 32.77500000000001 18.975
1965 2 32.77500000000001 32.77500000000001 22.425
1966 5 32.77500000000001 32.77500000000001 25.875
1967 5 32.77500000000001 32.77500000000001 29.325
1968 1 32.77500000000001 32.77500000000001 32.77500000000001
1969 5 32.77500000000001 5.174999999999999 8.625
1970 3 32.77500000000001 5.174999999999999 25.875
1971 1 32.77500000000001 8.625 8.625
1972 3 32.77500000000001 8.625 25.875
1973 2 32.77500000000001 8.625000000000002 5.174999999999997
1974 4 32.77500000000001 8.625000000000002 15.525
1975 1 32.77500000000001 8.625000000000002 22.425
1976 3 32.77500000000001 15.525 8.625000000000004
1977 5 32.77500000000001 15.525 15.525
1978 3 32.77500000000001 22.425 8.625
1979 4 32.77500000000001 25.875 5.174999999999997
1980 1 32.77500000000001 25.875 8.625
1981 4 32.77500000000001 25.875 25.875
1982 3 34.5 3.450000000000001 6.9
1983 2 34.5 3.450000000000002 17.25
1984 3 34.5 6.9 3.45
1985 4 34.5 6.900000000000001 13.8
1986 5 34.5 6.900000000000001 17.25
1987 1 34.5 6.900000000000001 31.05
1988 5 34.5 10.35 31.05
1989 4 34.5 13.8 6.9
1990 5 34.5 13.8 27.6
1991 4 34.5 17.25 3.450000000000001
1992 5 34.5 17.25 24.15000000000001
1993 1 34.5 17.25 31.05
1994 3 34.5 24.15000000000001 17.25
1995 1 34.5 27.6 13.8
1996 2 34.5 27.6 31.05
1997 1 34.5 31.05 6.9
1998 4 34.5 31.05 10.35
1999 5 34.5 31.05 17.25
2000 2 34.5 31.05 27.6
