# BCC equiatomic HfMoTaTiZr; profile=compact; x=[110]; seed=20264861

1960 atoms
5 atom types

0.0 34.15325753131025 xlo xhi
0.0 34.15325753131025 ylo yhi
0.0 34.5 zlo zhi
0 0 0 xy xz yz

Masses

1 178.49 # Hf
2 95.95 # Mo
3 180.94788 # Ta
4 47.867 # Ti
5 91.224 # Zr

Atoms # atomic

1 5 0 0 0
2 5 0 0 3.45
3 2 0 0 6.9
4 5 0 0 10.35
5 5 0 0 13.8
6 2 0 0 17.25
7 1 0 0 20.7
8 3 0 0 24.15
9 1 0 0 27.6
10 3 0 0 31.05
11 1 0 2.439518395093588 15.525
12 4 0 2.439518395093588 25.875
13 3 0 2.439518395093588 29.325
14 4 0 2.439518395093588 32.775
15 3 0 2.439518395093589 1.725
16 4 0 2.439518395093589 5.175000000000001
17 1 0 2.439518395093589 8.625
18 3 0 2.439518395093589 12.075
19 4 0 2.43951839509359 18.975
20 5 0 2.43951839509359 22.425
21 3 0 4.879036790187175 27.6
22 1 0 4.879036790187175 31.05
23 4 0 4.879036790187176 13.8
24 3 0 4.879036790187178 0
25 3 0 4.879036790187178 3.45
26 2 0 4.879036790187178 6.9
27 3 0 4.879036790187178 10.35
28 4 0 4.879036790187178 17.25
29 4 0 4.879036790187178 24.15
30 5 0 4.87903679018718 20.7
31 4 0 7.318555185280764 29.325
32 2 0 7.318555185280766 12.075
33 5 0 7.318555185280766 25.875
34 5 0 7.318555185280767 1.725
35 2 0 7.318555185280767 5.175000000000001
36 1 0 7.318555185280767 8.625
37 4 0 7.318555185280767 15.525
38 3 0 7.318555185280768 18.975
39 3 0 7.318555185280768 22.425
40 4 0 7.318555185280768 32.77500000000001
41 2 0 9.758073580374353 27.6
42 4 0 9.758073580374356 0
43 4 0 9.758073580374356 3.450000000000001
44 5 0 9.758073580374356 6.9
45 4 0 9.758073580374356 10.35
46 2 0 9.758073580374356 13.8
47 3 0 9.758073580374356 17.25
48 5 0 9.758073580374356 20.7
49 3 0 9.758073580374356 24.15
50 4 0 9.758073580374356 31.05
51 1 0 12.19759197546794 1.725000000000001
52 4 0 12.19759197546794 5.175000000000001
53 5 0 12.19759197546794 8.625
54 5 0 12.19759197546794 12.075
55 1 0 12.19759197546794 18.975
56 1 0 12.19759197546794 22.425
57 3 0 12.19759197546794 25.875
58 1 0 12.19759197546794 32.77500000000001
59 3 0 12.19759197546795 15.525
60 4 0 12.19759197546795 29.325
61 3 0 14.63711037056153 6.9
62 3 0 14.63711037056153 20.7
63 5 0 14.63711037056153 24.15
64 2 0 14.63711037056153 0
65 2 0 14.63711037056153 3.45
66 3 0 14.63711037056153 10.35
67 1 0 14.63711037056153 17.25
68 3 0 14.63711037056153 31.05
69 4 0 14.63711037056154 13.8
70 3 0 14.63711037056154 27.6
71 5 0 17.07662876565512 22.425
72 2 0 17.07662876565512 5.175
73 3 0 17.07662876565512 18.975
74 2 0 17.07662876565512 32.77500000000001
75 4 0 17.07662876565512 1.725
76 1 0 17.07662876565512 8.625000000000002
77 5 0 17.07662876565512 12.075
78 1 0 17.07662876565512 15.525
79 5 0 17.07662876565512 25.875
80 3 0 17.07662876565512 29.325
81 2 0 19.51614716074871 0
82 4 0 19.51614716074871 3.449999999999999
83 4 0 19.51614716074871 6.900000000000001
84 5 0 19.51614716074871 10.35
85 3 0 19.51614716074871 13.8
86 3 0 19.51614716074871 17.25
87 1 0 19.51614716074871 20.7
88 1 0 19.51614716074871 24.15
89 4 0 19.51614716074871 27.6
90 4 0 19.51614716074871 31.05
91 4 0 21.9556655558423 1.725
92 3 0 21.9556655558423 5.175000000000001
93 4 0 21.9556655558423 8.625
94 4 0 21.9556655558423 12.075
95 2 0 21.9556655558423 15.525
96 2 0 21.9556655558423 18.975
97 1 0 21.9556655558423 22.425
98 3 0 21.9556655558423 25.875
99 2 0 21.9556655558423 29.325
100 3 0 21.9556655558423 32.77500000000001
101 1 0 24.39518395093589 0
102 1 0 24.39518395093589 3.450000000000001
103 5 0 24.39518395093589 10.35
104 4 0 24.39518395093589 13.8
105 1 0 24.39518395093589 17.25
106 4 0 24.39518395093589 24.15
107 4 0 24.39518395093589 27.6
108 5 0 24.39518395093589 6.9
109 2 0 24.39518395093589 20.7
110 5 0 24.39518395093589 31.05
111 3 0 26.83470234602947 1.725000000000001
112 5 0 26.83470234602947 12.075
113 4 0 26.83470234602947 15.525
114 4 0 26.83470234602947 25.875
115 3 0 26.83470234602948 5.175000000000001
116 1 0 26.83470234602948 8.625
117 1 0 26.83470234602948 18.975
118 1 0 26.83470234602948 22.425
119 1 0 26.83470234602948 29.325
120 2 0 26.83470234602948 32.775
121 4 0 29.27422074112306 13.8
122 5 0 29.27422074112307 0
123 1 0 29.27422074112307 3.450000000000001
124 3 0 29.27422074112307 6.9
125 3 0 29.27422074112307 10.35
126 4 0 29.27422074112307 17.25
127 1 0 29.27422074112307 20.7
128 1 0 29.27422074112307 24.15
129 1 0 29.27422074112307 31.05
130 3 0 29.27422074112307 27.6
131 3 0 31.71373913621665 5.175000000000001
132 1 0 31.71373913621665 8.625
133 2 0 31.71373913621665 12.075
134 2 0 31.71373913621665 18.975
135 4 0 31.71373913621665 22.425
136 1 0 31.71373913621665 32.77500000000001
137 5 0 31.71373913621666 1.725
138 1 0 31.71373913621666 15.525
139 2 0 31.71373913621666 25.875
140 4 0 31.71373913621666 29.325
141 2 2.439518395093589 2.439518395093588 13.8
142 3 2.439518395093589 2.439518395093588 24.15
143 2 2.439518395093589 2.439518395093588 27.6
144 4 2.439518395093589 2.439518395093588 31.05
145 4 2.439518395093589 2.439518395093589 0
146 2 2.439518395093589 2.439518395093589 3.450000000000001
147 2 2.439518395093589 2.439518395093589 6.9
148 2 2.439518395093589 2.439518395093589 10.35
149 5 2.439518395093589 2.43951839509359 17.25
150 2 2.439518395093589 2.43951839509359 20.7
151 1 2.439518395093589 4.879036790187175 25.875
152 3 2.439518395093589 4.879036790187175 29.325
153 4 2.439518395093589 4.879036790187176 12.075
154 2 2.439518395093589 4.879036790187178 1.725
155 4 2.439518395093589 4.879036790187178 5.175000000000001
156 3 2.439518395093589 4.879036790187178 8.625000000000002
157 3 2.439518395093589 4.879036790187178 15.525
158 5 2.439518395093589 4.879036790187178 22.425
159 2 2.439518395093589 4.87903679018718 18.975
160 1 2.439518395093589 4.87903679018718 32.775
161 4 2.439518395093589 7.318555185280764 27.6
162 2 2.439518395093589 7.318555185280766 10.35
163 3 2.439518395093589 7.318555185280766 24.15
164 2 2.439518395093589 7.318555185280767 0
165 4 2.439518395093589 7.318555185280767 3.450000000000001
166 1 2.439518395093589 7.318555185280767 6.9
167 1 2.439518395093589 7.318555185280767 13.8
168 4 2.439518395093589 7.318555185280768 17.25
169 4 2.439518395093589 7.318555185280768 20.7
170 4 2.439518395093589 7.318555185280768 31.05
171 5 2.439518395093589 9.758073580374353 25.875
172 5 2.439518395093589 9.758073580374356 1.725000000000001
173 1 2.439518395093589 9.758073580374356 5.175000000000001
174 3 2.439518395093589 9.758073580374356 8.625
175 1 2.439518395093589 9.758073580374356 12.075
176 5 2.439518395093589 9.758073580374356 15.525
177 2 2.439518395093589 9.758073580374356 18.975
178 5 2.439518395093589 9.758073580374356 22.425
179 1 2.439518395093589 9.758073580374356 29.325
180 2 2.439518395093589 9.758073580374356 32.775
181 3 2.439518395093589 12.19759197546794 4.787836793695988e-16
182 3 2.439518395093589 12.19759197546794 3.450000000000001
183 4 2.439518395093589 12.19759197546794 6.9
184 3 2.439518395093589 12.19759197546794 10.35
185 1 2.439518395093589 12.19759197546794 17.25
186 1 2.439518395093589 12.19759197546794 20.7
187 1 2.439518395093589 12.19759197546794 24.15
188 5 2.439518395093589 12.19759197546794 31.05
189 3 2.439518395093589 12.19759197546795 13.8
190 1 2.439518395093589 12.19759197546795 27.6
191 3 2.439518395093589 14.63711037056153 5.175000000000001
192 3 2.439518395093589 14.63711037056153 18.975
193 2 2.439518395093589 14.63711037056153 22.425
194 2 2.439518395093589 14.63711037056153 32.775
195 4 2.439518395093589 14.63711037056153 1.725
196 3 2.439518395093589 14.63711037056153 8.625000000000002
197 4 2.439518395093589 14.63711037056153 15.525
198 3 2.439518395093589 14.63711037056153 29.325
199 2 2.439518395093589 14.63711037056154 12.075
200 1 2.439518395093589 14.63711037056154 25.875
201 1 2.439518395093589 17.07662876565512 20.7
202 4 2.439518395093589 17.07662876565512 3.45
203 5 2.439518395093589 17.07662876565512 17.25
204 5 2.439518395093589 17.07662876565512 31.05
205 3 2.439518395093589 17.07662876565512 6.900000000000002
206 2 2.439518395093589 17.07662876565512 10.35
207 1 2.439518395093589 17.07662876565512 13.8
208 2 2.439518395093589 17.07662876565512 24.15
209 5 2.439518395093589 17.07662876565512 27.6
210 2 2.439518395093589 17.07662876565512 34.5
211 5 2.439518395093589 19.51614716074871 1.724999999999999
212 5 2.439518395093589 19.51614716074871 5.175000000000001
213 1 2.439518395093589 19.51614716074871 8.625000000000002
214 4 2.439518395093589 19.51614716074871 12.075
215 2 2.439518395093589 19.51614716074871 15.525
216 3 2.439518395093589 19.51614716074871 18.975
217 5 2.439518395093589 19.51614716074871 22.425
218 5 2.439518395093589 19.51614716074871 25.875
219 5 2.439518395093589 19.51614716074871 29.325
220 3 2.439518395093589 19.51614716074871 32.775
221 4 2.439518395093589 21.9556655558423 3.450000000000001
222 5 2.439518395093589 21.9556655558423 6.9
223 2 2.439518395093589 21.9556655558423 10.35
224 1 2.439518395093589 21.9556655558423 13.8
225 1 2.439518395093589 21.9556655558423 17.25
226 3 2.439518395093589 21.9556655558423 20.7
227 3 2.439518395093589 21.9556655558423 24.15
228 2 2.439518395093589 21.9556655558423 27.6
229 5 2.439518395093589 21.9556655558423 34.5
230 4 2.439518395093589 21.9556655558423 31.05
231 4 2.439518395093589 24.39518395093589 1.725000000000001
232 2 2.439518395093589 24.39518395093589 8.625000000000002
233 5 2.439518395093589 24.39518395093589 12.075
234 3 2.439518395093589 24.39518395093589 15.525
235 1 2.439518395093589 24.39518395093589 22.425
236 4 2.439518395093589 24.39518395093589 25.875
237 2 2.439518395093589 24.39518395093589 5.175000000000001
238 1 2.439518395093589 24.39518395093589 18.975
239 1 2.439518395093589 24.39518395093589 29.325
240 2 2.439518395093589 24.39518395093589 32.775
241 4 2.439518395093589 26.83470234602947 1.436351038108796e-15
242 5 2.439518395093589 26.83470234602947 10.35
243 4 2.439518395093589 26.83470234602947 13.8
244 4 2.439518395093589 26.83470234602947 24.15
245 1 2.439518395093589 26.83470234602948 3.450000000000001
246 2 2.439518395093589 26.83470234602948 6.9
247 3 2.439518395093589 26.83470234602948 17.25
248 3 2.439518395093589 26.83470234602948 20.7
249 2 2.439518395093589 26.83470234602948 27.6
250 5 2.439518395093589 26.83470234602948 31.05
251 4 2.439518395093589 29.27422074112306 12.075
252 2 2.439518395093589 29.27422074112307 1.725000000000001
253 3 2.439518395093589 29.27422074112307 5.175000000000001
254 1 2.439518395093589 29.27422074112307 8.625
255 3 2.439518395093589 29.27422074112307 15.525
256 1 2.439518395093589 29.27422074112307 18.975
257 1 2.439518395093589 29.27422074112307 22.425
258 5 2.439518395093589 29.27422074112307 29.325
259 5 2.439518395093589 29.27422074112307 32.775
260 2 2.439518395093589 29.27422074112307 25.875
261 3 2.439518395093589 31.71373913621665 3.450000000000001
262 3 2.439518395093589 31.71373913621665 6.9
263 4 2.439518395093589 31.71373913621665 10.35
264 1 2.439518395093589 31.71373913621665 17.25
265 4 2.439518395093589 31.71373913621665 20.7
266 1 2.439518395093589 31.71373913621665 31.05
267 1 2.439518395093589 31.71373913621666 13.8
268 2 2.439518395093589 31.71373913621666 24.15
269 3 2.439518395093589 31.71373913621666 27.6
270 5 2.439518395093589 31.71373913621666 34.5
271 1 2.439518395093589 34.15325753131025 1.725
272 3 2.439518395093589 34.15325753131025 5.175000000000001
273 3 2.439518395093589 34.15325753131025 8.625000000000002
274 1 2.439518395093589 34.15325753131025 12.075
275 5 2.439518395093589 34.15325753131025 15.525
276 2 2.439518395093589 34.15325753131025 18.975
277 2 2.439518395093589 34.15325753131025 22.425
278 3 2.439518395093589 34.15325753131025 25.875
279 4 2.439518395093589 34.15325753131025 29.325
280 2 2.439518395093589 34.15325753131025 32.775
281 1 4.879036790187178 2.439518395093587 12.075
282 1 4.879036790187178 2.439518395093587 22.425
283 5 4.879036790187178 2.439518395093587 25.875
284 4 4.879036790187178 2.439518395093587 29.325
285 1 4.879036790187178 2.439518395093588 1.725000000000001
286 1 4.879036790187178 2.439518395093588 5.175
287 4 4.879036790187178 2.439518395093588 8.625
288 3 4.879036790187178 2.439518395093589 15.525
289 3 4.879036790187178 2.439518395093589 18.975
290 4 4.879036790187178 2.439518395093591 32.77500000000001
291 1 4.879036790187178 4.879036790187175 24.15
292 5 4.879036790187178 4.879036790187175 27.6
293 4 4.879036790187178 4.879036790187176 10.35
294 2 4.879036790187178 4.879036790187178 0
295 4 4.879036790187178 4.879036790187178 3.45
296 2 4.879036790187178 4.879036790187178 6.900000000000001
297 2 4.879036790187178 4.879036790187178 13.8
298 4 4.879036790187178 4.879036790187178 20.7
299 2 4.879036790187178 4.87903679018718 17.25
300 1 4.879036790187178 4.87903679018718 31.05
301 3 4.879036790187178 7.318555185280764 25.875
302 2 4.879036790187178 7.318555185280766 8.624999999999998
303 2 4.879036790187178 7.318555185280766 22.425
304 5 4.879036790187178 7.318555185280767 1.725000000000001
305 3 4.879036790187178 7.318555185280767 5.175
306 4 4.879036790187178 7.318555185280767 12.075
307 3 4.879036790187178 7.318555185280768 15.525
308 1 4.879036790187178 7.318555185280768 18.975
309 2 4.879036790187178 7.318555185280768 29.325
310 4 4.879036790187178 7.318555185280768 32.77500000000001
311 1 4.879036790187178 9.758073580374353 24.15
312 4 4.879036790187178 9.758073580374356 4.787836793695988e-16
313 3 4.879036790187178 9.758073580374356 3.45
314 5 4.879036790187178 9.758073580374356 6.899999999999999
315 1 4.879036790187178 9.758073580374356 10.35
316 4 4.879036790187178 9.758073580374356 13.8
317 2 4.879036790187178 9.758073580374356 17.25
318 2 4.879036790187178 9.758073580374356 20.7
319 1 4.879036790187178 9.758073580374356 27.6
320 5 4.879036790187178 9.758073580374356 31.05
321 2 4.879036790187178 12.19759197546794 1.725000000000001
322 5 4.879036790187178 12.19759197546794 5.175
323 2 4.879036790187178 12.19759197546794 8.625
324 1 4.879036790187178 12.19759197546794 15.525
325 1 4.879036790187178 12.19759197546794 18.975
326 1 4.879036790187178 12.19759197546794 22.425
327 4 4.879036790187178 12.19759197546794 29.32500000000001
328 1 4.879036790187178 12.19759197546794 32.77500000000001
329 4 4.879036790187178 12.19759197546795 12.075
330 2 4.879036790187178 12.19759197546795 25.875
331 1 4.879036790187178 14.63711037056153 3.45
332 2 4.879036790187178 14.63711037056153 17.25
333 3 4.879036790187178 14.63711037056153 20.7
334 4 4.879036790187178 14.63711037056153 31.05
335 4 4.879036790187178 14.63711037056153 0
336 3 4.879036790187178 14.63711037056153 6.900000000000001
337 1 4.879036790187178 14.63711037056153 13.8
338 1 4.879036790187178 14.63711037056153 27.6
339 5 4.879036790187178 14.63711037056154 10.35
340 1 4.879036790187178 14.63711037056154 24.15
341 5 4.879036790187178 17.07662876565512 18.975
342 3 4.879036790187178 17.07662876565512 1.725
343 3 4.879036790187178 17.07662876565512 15.525
344 3 4.879036790187178 17.07662876565512 29.325
345 3 4.879036790187178 17.07662876565512 5.175000000000002
346 3 4.879036790187178 17.07662876565512 8.625
347 5 4.879036790187178 17.07662876565512 12.075
348 4 4.879036790187178 17.07662876565512 22.425
349 4 4.879036790187178 17.07662876565512 25.875
350 4 4.879036790187178 17.07662876565512 32.77500000000001
351 2 4.879036790187178 19.51614716074871 3.450000000000001
352 1 4.879036790187178 19.51614716074871 6.900000000000001
353 4 4.879036790187178 19.51614716074871 10.35
354 5 4.879036790187178 19.51614716074871 13.8
355 1 4.879036790187178 19.51614716074871 17.25
356 2 4.879036790187178 19.51614716074871 20.7
357 1 4.879036790187178 19.51614716074871 24.15
358 3 4.879036790187178 19.51614716074871 27.6
359 1 4.879036790187178 19.51614716074871 31.05
360 4 4.879036790187178 19.51614716074871 34.5
361 1 4.879036790187178 21.9556655558423 1.725000000000001
362 3 4.879036790187178 21.9556655558423 5.175
363 4 4.879036790187178 21.9556655558423 8.625
364 3 4.879036790187178 21.9556655558423 12.075
365 3 4.879036790187178 21.9556655558423 15.525
366 2 4.879036790187178 21.9556655558423 18.975
367 4 4.879036790187178 21.9556655558423 22.425
368 2 4.879036790187178 21.9556655558423 25.875
369 3 4.879036790187178 21.9556655558423 32.77500000000001
370 5 4.879036790187178 21.9556655558423 29.325
371 2 4.879036790187178 24.39518395093589 9.575673587391975e-16
372 1 4.879036790187178 24.39518395093589 6.900000000000001
373 5 4.879036790187178 24.39518395093589 10.35
374 1 4.879036790187178 24.39518395093589 13.8
375 1 4.879036790187178 24.39518395093589 20.7
376 4 4.879036790187178 24.39518395093589 24.15
377 3 4.879036790187178 24.39518395093589 3.45
378 3 4.879036790187178 24.39518395093589 17.25
379 5 4.879036790187178 24.39518395093589 27.6
380 3 4.879036790187178 24.39518395093589 31.05
381 1 4.879036790187178 26.83470234602947 8.624999999999998
382 2 4.879036790187178 26.83470234602947 12.075
383 1 4.879036790187178 26.83470234602947 22.425
384 1 4.879036790187178 26.83470234602948 1.725000000000001
385 4 4.879036790187178 26.83470234602948 5.175
386 2 4.879036790187178 26.83470234602948 15.525
387 4 4.879036790187178 26.83470234602948 18.975
388 4 4.879036790187178 26.83470234602948 25.875
389 2 4.879036790187178 26.83470234602948 29.325
390 2 4.879036790187178 26.83470234602948 32.77500000000001
391 1 4.879036790187178 29.27422074112306 10.35
392 1 4.879036790187178 29.27422074112307 9.575673587391975e-16
393 2 4.879036790187178 29.27422074112307 3.45
394 1 4.879036790187178 29.27422074112307 6.899999999999999
395 1 4.879036790187178 29.27422074112307 13.8
396 1 4.879036790187178 29.27422074112307 17.25
397 3 4.879036790187178 29.27422074112307 20.7
398 3 4.879036790187178 29.27422074112307 27.6
399 4 4.879036790187178 29.27422074112307 31.05
400 4 4.879036790187178 29.27422074112307 24.15
401 2 4.879036790187178 31.71373913621665 1.725000000000001
402 3 4.879036790187178 31.71373913621665 5.175
403 5 4.879036790187178 31.71373913621665 8.624999999999998
404 4 4.879036790187178 31.71373913621665 15.525
405 5 4.879036790187178 31.71373913621665 18.975
406 3 4.879036790187178 31.71373913621665 29.325
407 2 4.879036790187178 31.71373913621665 32.77500000000001
408 2 4.879036790187178 31.71373913621666 12.075
409 1 4.879036790187178 31.71373913621666 22.425
410 4 4.879036790187178 31.71373913621666 25.875
411 3 4.879036790187178 34.15325753131025 0
412 3 4.879036790187178 34.15325753131025 3.45
413 1 4.879036790187178 34.15325753131025 6.900000000000001
414 4 4.879036790187178 34.15325753131025 10.35
415 4 4.879036790187178 34.15325753131025 13.8
416 3 4.879036790187178 34.15325753131025 17.25
417 3 4.879036790187178 34.15325753131025 20.7
418 1 4.879036790187178 34.15325753131025 24.15
419 5 4.879036790187178 34.15325753131025 27.6
420 2 4.879036790187178 34.15325753131025 31.05
421 4 7.318555185280767 2.439518395093587 10.35
422 5 7.318555185280767 2.439518395093587 20.7
423 4 7.318555185280767 2.439518395093587 24.15
424 4 7.318555185280767 2.439518395093587 27.6
425 2 7.318555185280767 2.439518395093588 0
426 1 7.318555185280767 2.439518395093588 3.449999999999999
427 3 7.318555185280767 2.439518395093588 6.9
428 2 7.318555185280767 2.439518395093589 13.8
429 5 7.318555185280767 2.439518395093589 17.25
430 2 7.318555185280767 2.439518395093591 31.05
431 5 7.318555185280767 4.879036790187175 22.425
432 1 7.318555185280767 4.879036790187175 25.875
433 3 7.318555185280767 4.879036790187176 8.625
434 2 7.318555185280767 4.879036790187178 1.725
435 2 7.318555185280767 4.879036790187178 5.175000000000001
436 2 7.318555185280767 4.879036790187178 12.075
437 4 7.318555185280767 4.879036790187178 18.975
438 2 7.318555185280767 4.87903679018718 15.525
439 1 7.318555185280767 4.87903679018718 29.325
440 4 7.318555185280767 4.87903679018718 32.77500000000001
441 2 7.318555185280767 7.318555185280764 24.15
442 5 7.318555185280767 7.318555185280766 6.899999999999999
443 1 7.318555185280767 7.318555185280766 20.7
444 2 7.318555185280767 7.318555185280767 0
445 4 7.318555185280767 7.318555185280767 3.449999999999999
446 2 7.318555185280767 7.318555185280767 10.35
447 5 7.318555185280767 7.318555185280768 13.8
448 3 7.318555185280767 7.318555185280768 17.25
449 4 7.318555185280767 7.318555185280768 27.6
450 1 7.318555185280767 7.318555185280768 31.05
451 2 7.318555185280767 9.758073580374353 22.425
452 2 7.318555185280767 9.758073580374356 1.725
453 4 7.318555185280767 9.758073580374356 5.174999999999999
454 1 7.318555185280767 9.758073580374356 8.625
455 2 7.318555185280767 9.758073580374356 12.075
456 1 7.318555185280767 9.758073580374356 15.525
457 2 7.318555185280767 9.758073580374356 18.975
458 4 7.318555185280767 9.758073580374356 25.875
459 4 7.318555185280767 9.758073580374356 29.325
460 2 7.318555185280767 9.758073580374356 32.77500000000001
461 3 7.318555185280767 12.19759197546794 0
462 5 7.318555185280767 12.19759197546794 3.449999999999999
463 5 7.318555185280767 12.19759197546794 6.9
464 3 7.318555185280767 12.19759197546794 13.8
465 4 7.318555185280767 12.19759197546794 17.25
466 4 7.318555185280767 12.19759197546794 20.7
467 1 7.318555185280767 12.19759197546794 27.6
468 4 7.318555185280767 12.19759197546794 31.05
469 5 7.318555185280767 12.19759197546795 10.35
470 5 7.318555185280767 12.19759197546795 24.15
471 4 7.318555185280767 14.63711037056153 1.725
472 5 7.318555185280767 14.63711037056153 15.525
473 5 7.318555185280767 14.63711037056153 18.975
474 5 7.318555185280767 14.63711037056153 29.325
475 1 7.318555185280767 14.63711037056153 5.175000000000001
476 1 7.318555185280767 14.63711037056153 12.075
477 1 7.318555185280767 14.63711037056153 25.875
478 4 7.318555185280767 14.63711037056154 8.625
479 1 7.318555185280767 14.63711037056154 22.425
480 5 7.318555185280767 14.63711037056154 32.77500000000001
481 4 7.318555185280767 17.07662876565512 17.25
482 2 7.318555185280767 17.07662876565512 13.8
483 5 7.318555185280767 17.07662876565512 27.6
484 4 7.318555185280767 17.07662876565512 34.5
485 2 7.318555185280767 17.07662876565512 3.450000000000001
486 1 7.318555185280767 17.07662876565512 6.9
487 5 7.318555185280767 17.07662876565512 10.35
488 2 7.318555185280767 17.07662876565512 20.7
489 5 7.318555185280767 17.07662876565512 24.15
490 4 7.318555185280767 17.07662876565512 31.05
491 1 7.318555185280767 19.51614716074871 1.725000000000001
492 3 7.318555185280767 19.51614716074871 5.175000000000001
493 3 7.318555185280767 19.51614716074871 8.625
494 5 7.318555185280767 19.51614716074871 12.075
495 1 7.318555185280767 19.51614716074871 15.525
496 4 7.318555185280767 19.51614716074871 18.975
497 4 7.318555185280767 19.51614716074871 22.425
498 5 7.318555185280767 19.51614716074871 25.875
499 4 7.318555185280767 19.51614716074871 29.325
500 4 7.318555185280767 19.51614716074871 32.77500000000001
501 1 7.318555185280767 21.9556655558423 0
502 5 7.318555185280767 21.9556655558423 3.449999999999999
503 2 7.318555185280767 21.9556655558423 6.9
504 5 7.318555185280767 21.9556655558423 10.35
505 1 7.318555185280767 21.9556655558423 13.8
506 3 7.318555185280767 21.9556655558423 17.25
507 3 7.318555185280767 21.9556655558423 20.7
508 1 7.318555185280767 21.9556655558423 24.15
509 5 7.318555185280767 21.9556655558423 31.05
510 3 7.318555185280767 21.9556655558423 27.6
511 4 7.318555185280767 24.39518395093589 5.175000000000001
512 5 7.318555185280767 24.39518395093589 8.625
513 5 7.318555185280767 24.39518395093589 12.075
514 4 7.318555185280767 24.39518395093589 18.975
515 5 7.318555185280767 24.39518395093589 22.425
516 3 7.318555185280767 24.39518395093589 32.77500000000001
517 4 7.318555185280767 24.39518395093589 1.725
518 1 7.318555185280767 24.39518395093589 15.525
519 1 7.318555185280767 24.39518395093589 25.875
520 5 7.318555185280767 24.39518395093589 29.325
521 3 7.318555185280767 26.83470234602947 6.899999999999999
522 1 7.318555185280767 26.83470234602947 10.35
523 3 7.318555185280767 26.83470234602947 20.7
524 5 7.318555185280767 26.83470234602948 0
525 3 7.318555185280767 26.83470234602948 3.449999999999999
526 4 7.318555185280767 26.83470234602948 13.8
527 2 7.318555185280767 26.83470234602948 17.25
528 1 7.318555185280767 26.83470234602948 24.15
529 5 7.318555185280767 26.83470234602948 27.6
530 3 7.318555185280767 26.83470234602948 31.05
531 4 7.318555185280767 29.27422074112306 8.625
532 5 7.318555185280767 29.27422074112307 1.725
533 5 7.318555185280767 29.27422074112307 5.174999999999999
534 2 7.318555185280767 29.27422074112307 12.075
535 1 7.318555185280767 29.27422074112307 15.525
536 4 7.318555185280767 29.27422074112307 18.975
537 4 7.318555185280767 29.27422074112307 25.875
538 4 7.318555185280767 29.27422074112307 29.325
539 1 7.318555185280767 29.27422074112307 32.77500000000001
540 5 7.318555185280767 29.27422074112307 22.425
541 4 7.318555185280767 31.71373913621665 0
542 5 7.318555185280767 31.71373913621665 3.449999999999999
543 1 7.318555185280767 31.71373913621665 6.899999999999999
544 3 7.318555185280767 31.71373913621665 13.8
545 2 7.318555185280767 31.71373913621665 17.25
546 5 7.318555185280767 31.71373913621665 27.6
547 3 7.318555185280767 31.71373913621665 31.05
548 2 7.318555185280767 31.71373913621666 10.35
549 5 7.318555185280767 31.71373913621666 20.7
550 2 7.318555185280767 31.71373913621666 24.15
551 2 7.318555185280767 34.15325753131025 1.725
552 3 7.318555185280767 34.15325753131025 5.175000000000001
553 2 7.318555185280767 34.15325753131025 8.625
554 5 7.318555185280767 34.15325753131025 12.075
555 1 7.318555185280767 34.15325753131025 15.525
556 4 7.318555185280767 34.15325753131025 18.975
557 4 7.318555185280767 34.15325753131025 22.425
558 4 7.318555185280767 34.15325753131025 25.875
559 3 7.318555185280767 34.15325753131025 29.325
560 4 7.318555185280767 34.15325753131025 32.77500000000001
561 4 9.758073580374356 2.439518395093587 8.625
562 5 9.758073580374356 2.439518395093587 18.975
563 5 9.758073580374356 2.439518395093587 22.425
564 3 9.758073580374356 2.439518395093587 25.875
565 1 9.758073580374356 2.439518395093587 32.77500000000001
566 4 9.758073580374356 2.439518395093588 1.725
567 3 9.758073580374356 2.439518395093588 5.175000000000001
568 4 9.758073580374356 2.439518395093589 12.075
569 4 9.758073580374356 2.439518395093589 15.525
570 2 9.758073580374356 2.439518395093591 29.325
571 2 9.758073580374356 4.879036790187175 20.7
572 5 9.758073580374356 4.879036790187175 24.15
573 4 9.758073580374356 4.879036790187175 6.9
574 4 9.758073580374356 4.879036790187176 0
575 4 9.758073580374356 4.879036790187176 3.450000000000001
576 4 9.758073580374356 4.879036790187176 10.35
577 1 9.758073580374356 4.879036790187176 17.25
578 2 9.758073580374356 4.879036790187179 13.8
579 2 9.758073580374356 4.879036790187179 27.6
580 2 9.758073580374356 4.879036790187179 31.05
581 5 9.758073580374356 7.318555185280763 22.425
582 1 9.758073580374356 7.318555185280765 5.174999999999999
583 2 9.758073580374356 7.318555185280765 18.975
584 4 9.758073580374356 7.318555185280766 1.725
585 3 9.758073580374356 7.318555185280766 8.625000000000002
586 5 9.758073580374356 7.318555185280767 12.075
587 4 9.758073580374356 7.318555185280767 15.525
588 2 9.758073580374356 7.318555185280767 25.875
589 2 9.758073580374356 7.318555185280767 29.325
590 5 9.758073580374356 7.318555185280767 32.775
591 1 9.758073580374356 9.758073580374353 20.7
592 2 9.758073580374356 9.758073580374356 0
593 3 9.758073580374356 9.758073580374356 3.449999999999999
594 3 9.758073580374356 9.758073580374356 6.9
595 1 9.758073580374356 9.758073580374356 10.35
596 2 9.758073580374356 9.758073580374356 13.8
597 5 9.758073580374356 9.758073580374356 17.25
598 2 9.758073580374356 9.758073580374356 24.15000000000001
599 4 9.758073580374356 9.758073580374356 27.6
600 4 9.758073580374356 9.758073580374356 31.05
601 4 9.758073580374356 12.19759197546794 1.725
602 3 9.758073580374356 12.19759197546794 5.175000000000001
603 5 9.758073580374356 12.19759197546794 12.075
604 5 9.758073580374356 12.19759197546794 15.525
605 5 9.758073580374356 12.19759197546794 18.975
606 3 9.758073580374356 12.19759197546794 25.87500000000001
607 3 9.758073580374356 12.19759197546794 29.325
608 4 9.758073580374356 12.19759197546795 8.625000000000002
609 5 9.758073580374356 12.19759197546795 22.425
610 5 9.758073580374356 12.19759197546795 32.77500000000001
611 2 9.758073580374356 14.63711037056153 0
612 3 9.758073580374356 14.63711037056153 13.8
613 3 9.758073580374356 14.63711037056153 17.25
614 2 9.758073580374356 14.63711037056153 27.6
615 1 9.758073580374356 14.63711037056153 3.450000000000001
616 5 9.758073580374356 14.63711037056153 10.35
617 4 9.758073580374356 14.63711037056153 24.15000000000001
618 3 9.758073580374356 14.63711037056154 6.9
619 4 9.758073580374356 14.63711037056154 20.7
620 2 9.758073580374356 14.63711037056154 31.05
621 3 9.758073580374356 17.07662876565512 15.525
622 2 9.758073580374356 17.07662876565512 12.075
623 5 9.758073580374356 17.07662876565512 25.875
624 1 9.758073580374356 17.07662876565512 1.725000000000001
625 4 9.758073580374356 17.07662876565512 5.175000000000001
626 5 9.758073580374356 17.07662876565512 8.625
627 2 9.758073580374356 17.07662876565512 18.975
628 2 9.758073580374356 17.07662876565512 22.425
629 4 9.758073580374356 17.07662876565512 29.325
630 3 9.758073580374356 17.07662876565512 32.775
631 5 9.758073580374356 19.51614716074871 9.575673587391975e-16
632 2 9.758073580374356 19.51614716074871 3.450000000000001
633 3 9.758073580374356 19.51614716074871 6.9
634 5 9.758073580374356 19.51614716074871 10.35
635 2 9.758073580374356 19.51614716074871 13.8
636 1 9.758073580374356 19.51614716074871 17.25
637 3 9.758073580374356 19.51614716074871 20.7
638 5 9.758073580374356 19.51614716074871 24.15
639 3 9.758073580374356 19.51614716074871 27.6
640 5 9.758073580374356 19.51614716074871 31.05
641 4 9.758073580374356 21.9556655558423 1.725
642 2 9.758073580374356 21.9556655558423 5.175000000000001
643 4 9.758073580374356 21.9556655558423 8.625
644 2 9.758073580374356 21.9556655558423 12.075
645 4 9.758073580374356 21.9556655558423 15.525
646 4 9.758073580374356 21.9556655558423 18.975
647 5 9.758073580374356 21.9556655558423 22.425
648 2 9.758073580374356 21.9556655558423 29.325
649 3 9.758073580374356 21.9556655558423 32.77500000000001
650 5 9.758073580374356 21.9556655558423 25.875
651 3 9.758073580374356 24.39518395093589 3.450000000000001
652 1 9.758073580374356 24.39518395093589 6.9
653 5 9.758073580374356 24.39518395093589 10.35
654 1 9.758073580374356 24.39518395093589 17.25
655 3 9.758073580374356 24.39518395093589 20.7
656 1 9.758073580374356 24.39518395093589 31.05
657 2 9.758073580374356 24.39518395093589 0
658 4 9.758073580374356 24.39518395093589 13.8
659 1 9.758073580374356 24.39518395093589 24.15000000000001
660 2 9.758073580374356 24.39518395093589 27.6
661 5 9.758073580374356 26.83470234602947 5.174999999999999
662 4 9.758073580374356 26.83470234602947 8.625
663 5 9.758073580374356 26.83470234602947 18.975
664 2 9.758073580374356 26.83470234602947 32.77500000000001
665 3 9.758073580374356 26.83470234602948 1.725
666 4 9.758073580374356 26.83470234602948 12.075
667 1 9.758073580374356 26.83470234602948 15.525
668 4 9.758073580374356 26.83470234602948 22.425
669 4 9.758073580374356 26.83470234602948 25.875
670 1 9.758073580374356 26.83470234602948 29.325
671 5 9.758073580374356 29.27422074112306 6.9
672 2 9.758073580374356 29.27422074112307 0
673 2 9.758073580374356 29.27422074112307 3.449999999999999
674 5 9.758073580374356 29.27422074112307 10.35
675 4 9.758073580374356 29.27422074112307 13.8
676 5 9.758073580374356 29.27422074112307 17.25
677 3 9.758073580374356 29.27422074112307 24.15
678 2 9.758073580374356 29.27422074112307 27.6
679 4 9.758073580374356 29.27422074112307 31.05
680 4 9.758073580374356 29.27422074112307 20.7
681 4 9.758073580374356 31.71373913621665 1.725
682 2 9.758073580374356 31.71373913621665 5.174999999999999
683 1 9.758073580374356 31.71373913621665 12.075
684 5 9.758073580374356 31.71373913621665 15.525
685 5 9.758073580374356 31.71373913621665 25.875
686 4 9.758073580374356 31.71373913621665 29.325
687 2 9.758073580374356 31.71373913621665 32.775
688 5 9.758073580374356 31.71373913621666 8.625000000000002
689 3 9.758073580374356 31.71373913621666 18.975
690 5 9.758073580374356 31.71373913621666 22.425
691 5 9.758073580374356 34.15325753131025 0
692 5 9.758073580374356 34.15325753131025 3.450000000000001
693 3 9.758073580374356 34.15325753131025 6.9
694 2 9.758073580374356 34.15325753131025 10.35
695 2 9.758073580374356 34.15325753131025 13.8
696 4 9.758073580374356 34.15325753131025 17.25
697 3 9.758073580374356 34.15325753131025 20.7
698 2 9.758073580374356 34.15325753131025 24.15
699 3 9.758073580374356 34.15325753131025 27.6
700 3 9.758073580374356 34.15325753131025 31.05
701 1 12.19759197546794 2.439518395093587 6.9
702 3 12.19759197546794 2.439518395093587 17.25
703 3 12.19759197546794 2.439518395093587 20.7
704 4 12.19759197546794 2.439518395093587 24.15
705 3 12.19759197546794 2.439518395093587 31.05
706 5 12.19759197546794 2.439518395093588 0
707 1 12.19759197546794 2.439518395093588 3.450000000000001
708 2 12.19759197546794 2.439518395093589 10.35
709 3 12.19759197546794 2.439518395093589 13.8
710 5 12.19759197546794 2.439518395093591 27.6
711 4 12.19759197546794 4.879036790187175 18.975
712 2 12.19759197546794 4.879036790187175 22.425
713 2 12.19759197546794 4.879036790187175 32.77500000000001
714 1 12.19759197546794 4.879036790187175 5.175000000000001
715 4 12.19759197546794 4.879036790187176 1.725000000000001
716 4 12.19759197546794 4.879036790187176 8.625
717 4 12.19759197546794 4.879036790187176 15.525
718 2 12.19759197546794 4.879036790187179 12.075
719 5 12.19759197546794 4.879036790187179 25.875
720 1 12.19759197546794 4.879036790187179 29.325
721 3 12.19759197546794 7.318555185280763 20.7
722 2 12.19759197546794 7.318555185280765 3.449999999999999
723 3 12.19759197546794 7.318555185280765 17.25
724 1 12.19759197546794 7.318555185280766 0
725 4 12.19759197546794 7.318555185280766 6.900000000000002
726 1 12.19759197546794 7.318555185280767 10.35
727 3 12.19759197546794 7.318555185280767 13.8
728 2 12.19759197546794 7.318555185280767 24.15
729 4 12.19759197546794 7.318555185280767 27.6
730 2 12.19759197546794 7.318555185280767 31.05
731 1 12.19759197546794 9.758073580374353 18.975
732 4 12.19759197546794 9.758073580374356 1.725
733 3 12.19759197546794 9.758073580374356 5.175000000000001
734 2 12.19759197546794 9.758073580374356 8.625
735 3 12.19759197546794 9.758073580374356 12.075
736 5 12.19759197546794 9.758073580374356 15.525
737 4 12.19759197546794 9.758073580374356 22.425
738 5 12.19759197546794 9.758073580374356 25.875
739 2 12.19759197546794 9.758073580374356 29.325
740 2 12.19759197546794 9.75807358037436 32.77500000000001
741 1 12.19759197546794 12.19759197546794 0
742 2 12.19759197546794 12.19759197546794 3.450000000000001
743 4 12.19759197546794 12.19759197546794 10.35
744 1 12.19759197546794 12.19759197546794 13.8
745 5 12.19759197546794 12.19759197546794 17.25
746 5 12.19759197546794 12.19759197546794 24.15000000000001
747 2 12.19759197546794 12.19759197546794 27.6
748 1 12.19759197546794 12.19759197546795 6.900000000000002
749 5 12.19759197546794 12.19759197546795 20.7
750 2 12.19759197546794 12.19759197546795 31.05
751 2 12.19759197546794 14.63711037056153 12.075
752 2 12.19759197546794 14.63711037056153 15.525
753 5 12.19759197546794 14.63711037056153 25.875
754 5 12.19759197546794 14.63711037056153 1.725000000000001
755 5 12.19759197546794 14.63711037056153 8.625
756 3 12.19759197546794 14.63711037056153 22.425
757 5 12.19759197546794 14.63711037056154 5.175000000000001
758 4 12.19759197546794 14.63711037056154 18.975
759 3 12.19759197546794 14.63711037056154 29.325
760 3 12.19759197546794 14.63711037056154 32.775
761 3 12.19759197546794 17.07662876565512 13.8
762 5 12.19759197546794 17.07662876565512 10.35
763 1 12.19759197546794 17.07662876565512 24.15
764 2 12.19759197546794 17.07662876565512 1.915134717478395e-15
765 5 12.19759197546794 17.07662876565512 3.450000000000001
766 5 12.19759197546794 17.07662876565512 6.9
767 4 12.19759197546794 17.07662876565512 17.25
768 2 12.19759197546794 17.07662876565512 20.7
769 2 12.19759197546794 17.07662876565512 27.6
770 2 12.19759197546794 17.07662876565512 31.05
771 5 12.19759197546794 19.51614716074871 1.725000000000001
772 3 12.19759197546794 19.51614716074871 5.175000000000001
773 3 12.19759197546794 19.51614716074871 8.625
774 3 12.19759197546794 19.51614716074871 12.075
775 2 12.19759197546794 19.51614716074871 15.525
776 2 12.19759197546794 19.51614716074871 18.975
777 5 12.19759197546794 19.51614716074871 22.425
778 2 12.19759197546794 19.51614716074871 25.875
779 5 12.19759197546794 19.51614716074871 29.325
780 4 12.19759197546794 19.51614716074871 32.77500000000001
781 1 12.19759197546794 21.9556655558423 0
782 5 12.19759197546794 21.9556655558423 3.450000000000001
783 4 12.19759197546794 21.9556655558423 6.9
784 3 12.19759197546794 21.9556655558423 10.35
785 4 12.19759197546794 21.9556655558423 13.8
786 1 12.19759197546794 21.9556655558423 17.25
787 3 12.19759197546794 21.9556655558423 20.7
788 2 12.19759197546794 21.9556655558423 27.6
789 2 12.19759197546794 21.9556655558423 31.05
790 3 12.19759197546794 21.9556655558423 24.15
791 5 12.19759197546794 24.39518395093589 1.725000000000001
792 1 12.19759197546794 24.39518395093589 5.175000000000001
793 5 12.19759197546794 24.39518395093589 8.625
794 4 12.19759197546794 24.39518395093589 15.525
795 2 12.19759197546794 24.39518395093589 18.975
796 2 12.19759197546794 24.39518395093589 29.325
797 1 12.19759197546794 24.39518395093589 32.77500000000001
798 5 12.19759197546794 24.39518395093589 12.075
799 1 12.19759197546794 24.39518395093589 22.425
800 5 12.19759197546794 24.39518395093589 25.875
801 5 12.19759197546794 26.83470234602947 3.449999999999999
802 3 12.19759197546794 26.83470234602947 6.9
803 2 12.19759197546794 26.83470234602947 17.25
804 4 12.19759197546794 26.83470234602947 31.05
805 1 12.19759197546794 26.83470234602948 0
806 2 12.19759197546794 26.83470234602948 10.35
807 1 12.19759197546794 26.83470234602948 13.8
808 1 12.19759197546794 26.83470234602948 20.7
809 3 12.19759197546794 26.83470234602948 24.15
810 2 12.19759197546794 26.83470234602948 27.6
811 2 12.19759197546794 29.27422074112306 5.175000000000001
812 3 12.19759197546794 29.27422074112306 32.77500000000001
813 4 12.19759197546794 29.27422074112307 1.725
814 5 12.19759197546794 29.27422074112307 8.625
815 2 12.19759197546794 29.27422074112307 12.075
816 1 12.19759197546794 29.27422074112307 15.525
817 5 12.19759197546794 29.27422074112307 22.425
818 2 12.19759197546794 29.27422074112307 25.875
819 4 12.19759197546794 29.27422074112307 29.325
820 4 12.19759197546794 29.27422074112307 18.975
821 5 12.19759197546794 31.71373913621665 0
822 1 12.19759197546794 31.71373913621665 3.449999999999999
823 4 12.19759197546794 31.71373913621665 10.35
824 5 12.19759197546794 31.71373913621665 13.8
825 3 12.19759197546794 31.71373913621665 24.15
826 1 12.19759197546794 31.71373913621665 27.6
827 2 12.19759197546794 31.71373913621665 31.05
828 4 12.19759197546794 31.71373913621666 6.900000000000002
829 3 12.19759197546794 31.71373913621666 17.25
830 4 12.19759197546794 31.71373913621666 20.7
831 2 12.19759197546794 34.15325753131025 1.725000000000001
832 2 12.19759197546794 34.15325753131025 5.175000000000001
833 3 12.19759197546794 34.15325753131025 8.625
834 2 12.19759197546794 34.15325753131025 12.075
835 3 12.19759197546794 34.15325753131025 15.525
836 3 12.19759197546794 34.15325753131025 18.975
837 5 12.19759197546794 34.15325753131025 22.425
838 1 12.19759197546794 34.15325753131025 25.875
839 5 12.19759197546794 34.15325753131025 29.325
840 3 12.19759197546794 34.15325753131025 32.77500000000001
841 3 14.63711037056153 2.439518395093587 5.174999999999999
842 5 14.63711037056153 2.439518395093587 15.525
843 4 14.63711037056153 2.439518395093587 18.975
844 4 14.63711037056153 2.439518395093587 22.425
845 1 14.63711037056153 2.439518395093587 29.325
846 3 14.63711037056153 2.439518395093587 32.775
847 3 14.63711037056153 2.439518395093588 1.725
848 1 14.63711037056153 2.439518395093589 8.625
849 2 14.63711037056153 2.439518395093589 12.075
850 3 14.63711037056153 2.439518395093591 25.875
851 2 14.63711037056153 4.879036790187175 17.25
852 5 14.63711037056153 4.879036790187175 20.7
853 4 14.63711037056153 4.879036790187175 31.05
854 4 14.63711037056153 4.879036790187175 3.449999999999999
855 2 14.63711037056153 4.879036790187176 0
856 4 14.63711037056153 4.879036790187176 6.899999999999999
857 3 14.63711037056153 4.879036790187176 13.8
858 2 14.63711037056153 4.879036790187179 10.35
859 5 14.63711037056153 4.879036790187179 24.15
860 3 14.63711037056153 4.879036790187179 27.6
861 1 14.63711037056153 7.318555185280763 18.975
862 5 14.63711037056153 7.318555185280765 1.724999999999998
863 4 14.63711037056153 7.318555185280765 15.525
864 4 14.63711037056153 7.318555185280766 5.175000000000001
865 1 14.63711037056153 7.318555185280767 8.625
866 1 14.63711037056153 7.318555185280767 12.075
867 5 14.63711037056153 7.318555185280767 22.425
868 3 14.63711037056153 7.318555185280767 25.875
869 3 14.63711037056153 7.318555185280767 29.325
870 5 14.63711037056153 7.318555185280767 32.775
871 1 14.63711037056153 9.758073580374353 17.25
872 2 14.63711037056153 9.758073580374356 3.449999999999999
873 1 14.63711037056153 9.758073580374356 6.899999999999999
874 3 14.63711037056153 9.758073580374356 10.35
875 2 14.63711037056153 9.758073580374356 13.8
876 3 14.63711037056153 9.758073580374356 20.7
877 4 14.63711037056153 9.758073580374356 24.15
878 3 14.63711037056153 9.758073580374356 27.6
879 1 14.63711037056153 9.758073580374356 34.5
880 2 14.63711037056153 9.75807358037436 31.05
881 3 14.63711037056153 12.19759197546794 1.725
882 5 14.63711037056153 12.19759197546794 8.625
883 4 14.63711037056153 12.19759197546794 12.075
884 4 14.63711037056153 12.19759197546794 15.525
885 4 14.63711037056153 12.19759197546794 22.425
886 4 14.63711037056153 12.19759197546794 25.875
887 1 14.63711037056153 12.19759197546795 5.175000000000001
888 2 14.63711037056153 12.19759197546795 18.975
889 2 14.63711037056153 12.19759197546795 29.325
890 3 14.63711037056153 12.19759197546795 32.775
891 4 14.63711037056153 14.63711037056153 10.35
892 3 14.63711037056153 14.63711037056153 13.8
893 3 14.63711037056153 14.63711037056153 24.15
894 5 14.63711037056153 14.63711037056153 0
895 3 14.63711037056153 14.63711037056153 6.899999999999999
896 2 14.63711037056153 14.63711037056153 20.7
897 4 14.63711037056153 14.63711037056154 3.449999999999999
898 3 14.63711037056153 14.63711037056154 17.25
899 1 14.63711037056153 14.63711037056154 27.6
900 1 14.63711037056153 14.63711037056154 31.05
901 4 14.63711037056153 17.07662876565512 12.075
902 3 14.63711037056153 17.07662876565512 8.625
903 3 14.63711037056153 17.07662876565512 22.425
904 3 14.63711037056153 17.07662876565512 1.725
905 1 14.63711037056153 17.07662876565512 5.174999999999999
906 2 14.63711037056153 17.07662876565512 15.525
907 2 14.63711037056153 17.07662876565512 18.975
908 4 14.63711037056153 17.07662876565512 25.875
909 5 14.63711037056153 17.07662876565512 29.325
910 2 14.63711037056153 17.07662876565512 32.775
911 1 14.63711037056153 19.51614716074871 0
912 5 14.63711037056153 19.51614716074871 3.449999999999999
913 4 14.63711037056153 19.51614716074871 6.899999999999999
914 5 14.63711037056153 19.51614716074871 10.35
915 4 14.63711037056153 19.51614716074871 13.8
916 3 14.63711037056153 19.51614716074871 17.25
917 4 14.63711037056153 19.51614716074871 20.7
918 1 14.63711037056153 19.51614716074871 24.15
919 3 14.63711037056153 19.51614716074871 27.6
920 1 14.63711037056153 19.51614716074871 31.05
921 1 14.63711037056153 21.9556655558423 1.725
922 1 14.63711037056153 21.9556655558423 5.174999999999999
923 2 14.63711037056153 21.9556655558423 8.625
924 2 14.63711037056153 21.9556655558423 12.075
925 5 14.63711037056153 21.9556655558423 15.525
926 3 14.63711037056153 21.9556655558423 18.975
927 1 14.63711037056153 21.9556655558423 25.875
928 5 14.63711037056153 21.9556655558423 29.325
929 4 14.63711037056153 21.9556655558423 32.775
930 4 14.63711037056153 21.9556655558423 22.425
931 4 14.63711037056153 24.39518395093589 0
932 2 14.63711037056153 24.39518395093589 3.449999999999999
933 5 14.63711037056153 24.39518395093589 6.899999999999999
934 2 14.63711037056153 24.39518395093589 13.8
935 4 14.63711037056153 24.39518395093589 17.25
936 1 14.63711037056153 24.39518395093589 27.6
937 3 14.63711037056153 24.39518395093589 31.05
938 5 14.63711037056153 24.39518395093589 10.35
939 4 14.63711037056153 24.39518395093589 20.7
940 1 14.63711037056153 24.39518395093589 24.15
941 3 14.63711037056153 26.83470234602947 1.724999999999998
942 4 14.63711037056153 26.83470234602947 5.174999999999999
943 2 14.63711037056153 26.83470234602947 15.525
944 2 14.63711037056153 26.83470234602947 29.325
945 3 14.63711037056153 26.83470234602947 32.775
946 5 14.63711037056153 26.83470234602948 8.625
947 1 14.63711037056153 26.83470234602948 12.075
948 3 14.63711037056153 26.83470234602948 18.975
949 1 14.63711037056153 26.83470234602948 22.425
950 4 14.63711037056153 26.83470234602948 25.875
951 2 14.63711037056153 29.27422074112306 3.449999999999999
952 3 14.63711037056153 29.27422074112306 31.05
953 2 14.63711037056153 29.27422074112307 6.899999999999999
954 5 14.63711037056153 29.27422074112307 10.35
955 2 14.63711037056153 29.27422074112307 13.8
956 4 14.63711037056153 29.27422074112307 20.7
957 2 14.63711037056153 29.27422074112307 24.15
958 2 14.63711037056153 29.27422074112307 27.6
959 3 14.63711037056153 29.27422074112307 34.5
960 2 14.63711037056153 29.27422074112307 17.25
961 2 14.63711037056153 31.71373913621665 32.775
962 2 14.63711037056153 31.71373913621665 1.724999999999998
963 3 14.63711037056153 31.71373913621665 8.625
964 1 14.63711037056153 31.71373913621665 12.075
965 1 14.63711037056153 31.71373913621665 22.425
966 2 14.63711037056153 31.71373913621665 25.875
967 2 14.63711037056153 31.71373913621665 29.325
968 2 14.63711037056153 31.71373913621666 5.175000000000001
969 5 14.63711037056153 31.71373913621666 15.525
970 3 14.63711037056153 31.71373913621666 18.975
971 1 14.63711037056153 34.15325753131025 0
972 4 14.63711037056153 34.15325753131025 3.449999999999999
973 4 14.63711037056153 34.15325753131025 6.899999999999999
974 4 14.63711037056153 34.15325753131025 10.35
975 2 14.63711037056153 34.15325753131025 13.8
976 2 14.63711037056153 34.15325753131025 17.25
977 3 14.63711037056153 34.15325753131025 20.7
978 3 14.63711037056153 34.15325753131025 24.15
979 2 14.63711037056153 34.15325753131025 27.6
980 4 14.63711037056153 34.15325753131025 31.05
981 3 17.07662876565512 2.439518395093587 3.449999999999999
982 1 17.07662876565512 2.439518395093587 13.8
983 3 17.07662876565512 2.439518395093587 17.25
984 2 17.07662876565512 2.439518395093587 20.7
985 4 17.07662876565512 2.439518395093587 27.6
986 3 17.07662876565512 2.439518395093587 31.05
987 2 17.07662876565512 2.439518395093588 0
988 1 17.07662876565512 2.439518395093589 6.9
989 1 17.07662876565512 2.439518395093589 10.35
990 5 17.07662876565512 2.439518395093591 24.15
991 1 17.07662876565512 4.879036790187175 15.525
992 3 17.07662876565512 4.879036790187175 18.975
993 3 17.07662876565512 4.879036790187175 29.325
994 2 17.07662876565512 4.879036790187175 1.725
995 1 17.07662876565512 4.879036790187176 5.174999999999999
996 5 17.07662876565512 4.879036790187176 12.075
997 1 17.07662876565512 4.879036790187179 8.625000000000002
998 5 17.07662876565512 4.879036790187179 22.425
999 4 17.07662876565512 4.879036790187179 25.875
1000 4 17.07662876565512 4.879036790187179 32.77500000000001
1001 2 17.07662876565512 7.318555185280763 17.25
1002 5 17.07662876565512 7.318555185280765 13.8
1003 5 17.07662876565512 7.318555185280765 34.5
1004 1 17.07662876565512 7.318555185280766 3.450000000000001
1005 2 17.07662876565512 7.318555185280767 6.9
1006 3 17.07662876565512 7.318555185280767 10.35
1007 1 17.07662876565512 7.318555185280767 20.7
1008 1 17.07662876565512 7.318555185280767 24.15
1009 4 17.07662876565512 7.318555185280767 27.59999999999999
1010 2 17.07662876565512 7.318555185280767 31.05
1011 3 17.07662876565512 9.758073580374351 15.525
1012 1 17.07662876565512 9.758073580374353 1.725
1013 3 17.07662876565512 9.758073580374353 5.174999999999999
1014 1 17.07662876565512 9.758073580374353 8.625000000000002
1015 3 17.07662876565512 9.758073580374353 12.075
1016 3 17.07662876565512 9.758073580374353 18.975
1017 1 17.07662876565512 9.758073580374353 22.425
1018 2 17.07662876565512 9.758073580374353 25.875
1019 5 17.07662876565512 9.758073580374353 32.775
1020 2 17.07662876565512 9.758073580374358 29.325
1021 2 17.07662876565512 12.19759197546794 0
1022 1 17.07662876565512 12.19759197546794 6.9
1023 4 17.07662876565512 12.19759197546794 10.35
1024 1 17.07662876565512 12.19759197546794 13.8
1025 4 17.07662876565512 12.19759197546794 20.7
1026 3 17.07662876565512 12.19759197546794 24.15
1027 2 17.07662876565512 12.19759197546794 3.450000000000001
1028 4 17.07662876565512 12.19759197546794 17.25
1029 4 17.07662876565512 12.19759197546795 27.6
1030 1 17.07662876565512 12.19759197546795 31.05
1031 3 17.07662876565512 14.63711037056153 8.625000000000002
1032 4 17.07662876565512 14.63711037056153 12.075
1033 1 17.07662876565512 14.63711037056153 22.425
1034 3 17.07662876565512 14.63711037056153 5.174999999999999
1035 3 17.07662876565512 14.63711037056153 18.975
1036 5 17.07662876565512 14.63711037056153 1.725
1037 4 17.07662876565512 14.63711037056153 15.525
1038 4 17.07662876565512 14.63711037056153 25.875
1039 4 17.07662876565512 14.63711037056153 29.325
1040 4 17.07662876565512 14.63711037056153 32.775
1041 4 17.07662876565512 17.07662876565512 10.35
1042 3 17.07662876565512 17.07662876565512 6.9
1043 2 17.07662876565512 17.07662876565512 20.7
1044 4 17.07662876565512 17.07662876565512 0
1045 3 17.07662876565512 17.07662876565512 3.449999999999999
1046 3 17.07662876565512 17.07662876565512 13.8
1047 4 17.07662876565512 17.07662876565512 17.25
1048 5 17.07662876565512 17.07662876565512 24.15
1049 2 17.07662876565512 17.07662876565512 27.59999999999999
1050 2 17.07662876565512 17.07662876565512 31.05
1051 5 17.07662876565512 19.51614716074871 1.725
1052 3 17.07662876565512 19.51614716074871 5.174999999999999
1053 2 17.07662876565512 19.51614716074871 8.624999999999998
1054 5 17.07662876565512 19.51614716074871 12.075
1055 5 17.07662876565512 19.51614716074871 15.525
1056 3 17.07662876565512 19.51614716074871 18.975
1057 3 17.07662876565512 19.51614716074871 22.425
1058 2 17.07662876565512 19.51614716074871 25.875
1059 5 17.07662876565512 19.51614716074871 29.325
1060 3 17.07662876565512 19.51614716074871 32.775
1061 2 17.07662876565512 21.9556655558423 0
1062 1 17.07662876565512 21.9556655558423 3.449999999999999
1063 5 17.07662876565512 21.9556655558423 6.9
1064 5 17.07662876565512 21.9556655558423 10.35
1065 5 17.07662876565512 21.9556655558423 13.8
1066 3 17.07662876565512 21.9556655558423 17.25
1067 4 17.07662876565512 21.9556655558423 24.15
1068 5 17.07662876565512 21.9556655558423 27.6
1069 1 17.07662876565512 21.9556655558423 31.05
1070 4 17.07662876565512 21.9556655558423 20.7
1071 5 17.07662876565512 24.39518395093589 1.725
1072 5 17.07662876565512 24.39518395093589 5.174999999999999
1073 5 17.07662876565512 24.39518395093589 12.075
1074 2 17.07662876565512 24.39518395093589 15.525
1075 3 17.07662876565512 24.39518395093589 25.875
1076 5 17.07662876565512 24.39518395093589 29.325
1077 5 17.07662876565512 24.39518395093589 32.775
1078 2 17.07662876565512 24.39518395093589 8.625000000000002
1079 4 17.07662876565512 24.39518395093589 18.975
1080 4 17.07662876565512 24.39518395093589 22.425
1081 3 17.07662876565512 26.83470234602947 3.449999999999999
1082 5 17.07662876565512 26.83470234602947 13.8
1083 5 17.07662876565512 26.83470234602947 27.6
1084 2 17.07662876565512 26.83470234602947 31.05
1085 1 17.07662876565512 26.83470234602947 34.5
1086 5 17.07662876565512 26.83470234602948 6.9
1087 1 17.07662876565512 26.83470234602948 10.35
1088 4 17.07662876565512 26.83470234602948 17.25
1089 5 17.07662876565512 26.83470234602948 20.7
1090 1 17.07662876565512 26.83470234602948 24.15
1091 3 17.07662876565512 29.27422074112306 1.725
1092 2 17.07662876565512 29.27422074112306 29.325
1093 5 17.07662876565512 29.27422074112306 32.775
1094 4 17.07662876565512 29.27422074112307 5.174999999999999
1095 2 17.07662876565512 29.27422074112307 8.625000000000002
1096 5 17.07662876565512 29.27422074112307 12.075
1097 4 17.07662876565512 29.27422074112307 18.975
1098 1 17.07662876565512 29.27422074112307 22.425
1099 1 17.07662876565512 29.27422074112307 25.875
1100 4 17.07662876565512 29.27422074112307 15.525
1101 2 17.07662876565512 31.71373913621665 31.05
1102 3 17.07662876565512 31.71373913621665 6.9
1103 4 17.07662876565512 31.71373913621665 10.35
1104 1 17.07662876565512 31.71373913621665 20.7
1105 3 17.07662876565512 31.71373913621665 24.15
1106 1 17.07662876565512 31.71373913621665 27.59999999999999
1107 2 17.07662876565512 31.71373913621665 34.5
1108 2 17.07662876565512 31.71373913621666 3.450000000000001
1109 1 17.07662876565512 31.71373913621666 13.8
1110 4 17.07662876565512 31.71373913621666 17.25
1111 3 17.07662876565512 34.15325753131025 1.725
1112 3 17.07662876565512 34.15325753131025 5.174999999999999
1113 5 17.07662876565512 34.15325753131025 8.625000000000002
1114 4 17.07662876565512 34.15325753131025 12.075
1115 1 17.07662876565512 34.15325753131025 15.525
1116 3 17.07662876565512 34.15325753131025 18.975
1117 2 17.07662876565512 34.15325753131025 22.425
1118 1 17.07662876565512 34.15325753131025 25.875
1119 5 17.07662876565512 34.15325753131025 29.325
1120 2 17.07662876565512 34.15325753131025 32.775
1121 3 19.51614716074871 2.439518395093586 1.725
1122 5 19.51614716074871 2.439518395093586 12.075
1123 1 19.51614716074871 2.439518395093586 15.525
1124 5 19.51614716074871 2.439518395093586 18.975
1125 5 19.51614716074871 2.439518395093586 25.875
1126 4 19.51614716074871 2.439518395093586 29.325
1127 5 19.51614716074871 2.439518395093588 5.175000000000001
1128 2 19.51614716074871 2.439518395093588 8.625000000000004
1129 3 19.51614716074871 2.43951839509359 22.425
1130 1 19.51614716074871 2.43951839509359 32.77500000000001
1131 4 19.51614716074871 4.879036790187175 13.8
1132 4 19.51614716074871 4.879036790187175 17.25
1133 1 19.51614716074871 4.879036790187175 27.6
1134 2 19.51614716074871 4.879036790187175 0
1135 2 19.51614716074871 4.879036790187176 3.449999999999999
1136 4 19.51614716074871 4.879036790187176 10.35
1137 2 19.51614716074871 4.879036790187179 6.900000000000002
1138 1 19.51614716074871 4.879036790187179 20.7
1139 5 19.51614716074871 4.879036790187179 24.15
1140 1 19.51614716074871 4.879036790187179 31.05000000000001
1141 2 19.51614716074871 7.318555185280763 15.525
1142 1 19.51614716074871 7.318555185280765 12.075
1143 2 19.51614716074871 7.318555185280766 1.725000000000001
1144 2 19.51614716074871 7.318555185280767 5.175000000000001
1145 2 19.51614716074871 7.318555185280767 8.625
1146 2 19.51614716074871 7.318555185280767 18.975
1147 5 19.51614716074871 7.318555185280767 22.425
1148 1 19.51614716074871 7.318555185280767 25.875
1149 3 19.51614716074871 7.318555185280767 29.325
1150 3 19.51614716074871 7.318555185280767 32.77500000000001
1151 5 19.51614716074871 9.758073580374351 13.8
1152 1 19.51614716074871 9.758073580374353 0
1153 4 19.51614716074871 9.758073580374353 3.449999999999999
1154 3 19.51614716074871 9.758073580374353 6.900000000000002
1155 2 19.51614716074871 9.758073580374353 10.35
1156 4 19.51614716074871 9.758073580374353 17.25
1157 5 19.51614716074871 9.758073580374353 20.7
1158 3 19.51614716074871 9.758073580374353 24.15
1159 1 19.51614716074871 9.758073580374353 31.05
1160 1 19.51614716074871 9.758073580374358 27.6
1161 1 19.51614716074871 12.19759197546794 5.175000000000001
1162 3 19.51614716074871 12.19759197546794 8.625
1163 4 19.51614716074871 12.19759197546794 12.075
1164 3 19.51614716074871 12.19759197546794 18.975
1165 2 19.51614716074871 12.19759197546794 22.425
1166 4 19.51614716074871 12.19759197546794 32.77500000000001
1167 5 19.51614716074871 12.19759197546794 1.725000000000001
1168 4 19.51614716074871 12.19759197546794 15.525
1169 1 19.51614716074871 12.19759197546795 25.875
1170 3 19.51614716074871 12.19759197546795 29.325
1171 2 19.51614716074871 14.63711037056153 6.900000000000002
1172 4 19.51614716074871 14.63711037056153 10.35
1173 3 19.51614716074871 14.63711037056153 20.7
1174 2 19.51614716074871 14.63711037056153 3.449999999999999
1175 1 19.51614716074871 14.63711037056153 17.25
1176 1 19.51614716074871 14.63711037056153 0
1177 3 19.51614716074871 14.63711037056153 13.8
1178 2 19.51614716074871 14.63711037056153 24.15
1179 2 19.51614716074871 14.63711037056153 27.6
1180 4 19.51614716074871 14.63711037056153 31.05
1181 4 19.51614716074871 17.07662876565512 8.625
1182 5 19.51614716074871 17.07662876565512 5.175000000000001
1183 5 19.51614716074871 17.07662876565512 18.975
1184 2 19.51614716074871 17.07662876565512 1.725
1185 1 19.51614716074871 17.07662876565512 12.075
1186 2 19.51614716074871 17.07662876565512 15.525
1187 2 19.51614716074871 17.07662876565512 22.425
1188 4 19.51614716074871 17.07662876565512 25.875
1189 4 19.51614716074871 17.07662876565512 29.325
1190 3 19.51614716074871 17.07662876565512 32.77500000000001
1191 1 19.51614716074871 19.51614716074871 0
1192 3 19.51614716074871 19.51614716074871 3.449999999999999
1193 4 19.51614716074871 19.51614716074871 6.899999999999999
1194 2 19.51614716074871 19.51614716074871 10.35
1195 4 19.51614716074871 19.51614716074871 13.8
1196 5 19.51614716074871 19.51614716074871 17.25
1197 3 19.51614716074871 19.51614716074871 20.7
1198 2 19.51614716074871 19.51614716074871 24.15
1199 5 19.51614716074871 19.51614716074871 27.6
1200 3 19.51614716074871 19.51614716074871 31.05
1201 1 19.51614716074871 21.9556655558423 1.725
1202 3 19.51614716074871 21.9556655558423 5.175000000000001
1203 5 19.51614716074871 21.9556655558423 8.625
1204 5 19.51614716074871 21.9556655558423 12.075
1205 2 19.51614716074871 21.9556655558423 15.525
1206 3 19.51614716074871 21.9556655558423 22.425
1207 4 19.51614716074871 21.9556655558423 25.875
1208 3 19.51614716074871 21.9556655558423 29.325
1209 2 19.51614716074871 21.9556655558423 32.77500000000001
1210 5 19.51614716074871 21.9556655558423 18.975
1211 5 19.51614716074871 24.39518395093589 0
1212 1 19.51614716074871 24.39518395093589 3.449999999999999
1213 1 19.51614716074871 24.39518395093589 10.35
1214 2 19.51614716074871 24.39518395093589 13.8
1215 2 19.51614716074871 24.39518395093589 24.15
1216 4 19.51614716074871 24.39518395093589 27.6
1217 1 19.51614716074871 24.39518395093589 31.05
1218 1 19.51614716074871 24.39518395093589 6.900000000000002
1219 4 19.51614716074871 24.39518395093589 17.25
1220 3 19.51614716074871 24.39518395093589 20.7
1221 1 19.51614716074871 26.83470234602947 1.725
1222 3 19.51614716074871 26.83470234602947 12.075
1223 1 19.51614716074871 26.83470234602947 25.875
1224 5 19.51614716074871 26.83470234602947 29.325
1225 3 19.51614716074871 26.83470234602947 32.77500000000001
1226 3 19.51614716074871 26.83470234602948 5.175000000000001
1227 5 19.51614716074871 26.83470234602948 8.625000000000004
1228 5 19.51614716074871 26.83470234602948 15.525
1229 5 19.51614716074871 26.83470234602948 18.975
1230 1 19.51614716074871 26.83470234602948 22.425
1231 5 19.51614716074871 29.27422074112306 0
1232 4 19.51614716074871 29.27422074112306 27.6
1233 3 19.51614716074871 29.27422074112306 31.05
1234 3 19.51614716074871 29.27422074112307 3.449999999999999
1235 2 19.51614716074871 29.27422074112307 6.900000000000002
1236 1 19.51614716074871 29.27422074112307 10.35
1237 5 19.51614716074871 29.27422074112307 17.25
1238 1 19.51614716074871 29.27422074112307 20.7
1239 3 19.51614716074871 29.27422074112307 24.15
1240 1 19.51614716074871 29.27422074112307 13.8
1241 1 19.51614716074871 31.71373913621665 29.325
1242 5 19.51614716074871 31.71373913621665 32.77500000000001
1243 2 19.51614716074871 31.71373913621665 5.175000000000001
1244 4 19.51614716074871 31.71373913621665 8.625
1245 3 19.51614716074871 31.71373913621665 18.975
1246 3 19.51614716074871 31.71373913621665 22.425
1247 1 19.51614716074871 31.71373913621665 25.875
1248 1 19.51614716074871 31.71373913621666 1.725000000000001
1249 4 19.51614716074871 31.71373913621666 12.075
1250 5 19.51614716074871 31.71373913621666 15.525
1251 4 19.51614716074871 34.15325753131025 0
1252 2 19.51614716074871 34.15325753131025 3.449999999999999
1253 5 19.51614716074871 34.15325753131025 6.900000000000002
1254 4 19.51614716074871 34.15325753131025 10.35
1255 1 19.51614716074871 34.15325753131025 13.8
1256 4 19.51614716074871 34.15325753131025 17.25
1257 4 19.51614716074871 34.15325753131025 20.7
1258 4 19.51614716074871 34.15325753131025 24.15
1259 1 19.51614716074871 34.15325753131025 27.6
1260 2 19.51614716074871 34.15325753131025 31.05
1261 3 21.9556655558423 2.439518395093586 0
1262 4 21.9556655558423 2.439518395093586 10.35
1263 5 21.9556655558423 2.439518395093586 13.8
1264 2 21.9556655558423 2.439518395093586 17.25
1265 5 21.9556655558423 2.439518395093586 24.15000000000001
1266 5 21.9556655558423 2.439518395093586 27.6
1267 5 21.9556655558423 2.439518395093588 3.450000000000001
1268 1 21.9556655558423 2.439518395093588 6.900000000000004
1269 5 21.9556655558423 2.43951839509359 20.7
1270 1 21.9556655558423 2.43951839509359 31.05
1271 2 21.9556655558423 4.879036790187175 12.075
1272 4 21.9556655558423 4.879036790187175 15.525
1273 3 21.9556655558423 4.879036790187175 25.87500000000001
1274 4 21.9556655558423 4.879036790187176 1.725
1275 5 21.9556655558423 4.879036790187176 8.625000000000002
1276 4 21.9556655558423 4.879036790187179 5.175000000000002
1277 5 21.9556655558423 4.879036790187179 18.975
1278 2 21.9556655558423 4.879036790187179 22.425
1279 5 21.9556655558423 4.879036790187179 29.32500000000001
1280 2 21.9556655558423 4.879036790187179 32.775
1281 4 21.9556655558423 7.318555185280763 13.8
1282 5 21.9556655558423 7.318555185280765 10.35
1283 5 21.9556655558423 7.318555185280766 1.915134717478395e-15
1284 5 21.9556655558423 7.318555185280767 3.450000000000001
1285 5 21.9556655558423 7.318555185280767 6.9
1286 5 21.9556655558423 7.318555185280767 17.25
1287 3 21.9556655558423 7.318555185280767 20.7
1288 2 21.9556655558423 7.318555185280767 24.15
1289 1 21.9556655558423 7.318555185280767 27.6
1290 2 21.9556655558423 7.318555185280767 31.05
1291 2 21.9556655558423 9.758073580374351 12.075
1292 2 21.9556655558423 9.758073580374353 1.725
1293 3 21.9556655558423 9.758073580374353 5.175000000000002
1294 2 21.9556655558423 9.758073580374353 8.624999999999998
1295 1 21.9556655558423 9.758073580374353 15.525
1296 1 21.9556655558423 9.758073580374353 18.975
1297 5 21.9556655558423 9.758073580374353 22.425
1298 2 21.9556655558423 9.758073580374353 29.325
1299 1 21.9556655558423 9.758073580374353 32.77500000000001
1300 4 21.9556655558423 9.758073580374358 25.87500000000001
1301 4 21.9556655558423 12.19759197546794 3.450000000000001
1302 2 21.9556655558423 12.19759197546794 6.9
1303 4 21.9556655558423 12.19759197546794 10.35
1304 4 21.9556655558423 12.19759197546794 17.25000000000001
1305 5 21.9556655558423 12.19759197546794 20.7
1306 3 21.9556655558423 12.19759197546794 31.05
1307 1 21.9556655558423 12.19759197546794 1.915134717478395e-15
1308 4 21.9556655558423 12.19759197546794 13.8
1309 1 21.9556655558423 12.19759197546795 24.15000000000001
1310 3 21.9556655558423 12.19759197546795 27.6
1311 5 21.9556655558423 14.63711037056153 5.175000000000002
1312 1 21.9556655558423 14.63711037056153 8.624999999999998
1313 2 21.9556655558423 14.63711037056153 18.975
1314 5 21.9556655558423 14.63711037056153 32.77500000000001
1315 1 21.9556655558423 14.63711037056153 1.725
1316 1 21.9556655558423 14.63711037056153 15.525
1317 5 21.9556655558423 14.63711037056153 12.075
1318 1 21.9556655558423 14.63711037056153 22.425
1319 2 21.9556655558423 14.63711037056153 25.875
1320 5 21.9556655558423 14.63711037056153 29.325
1321 3 21.9556655558423 17.07662876565512 6.9
1322 5 21.9556655558423 17.07662876565512 3.450000000000001
1323 1 21.9556655558423 17.07662876565512 17.25
1324 4 21.9556655558423 17.07662876565512 0
1325 2 21.9556655558423 17.07662876565512 10.35
1326 3 21.9556655558423 17.07662876565512 13.8
1327 4 21.9556655558423 17.07662876565512 20.7
1328 3 21.9556655558423 17.07662876565512 24.15
1329 5 21.9556655558423 17.07662876565512 27.6
1330 2 21.9556655558423 17.07662876565512 31.05
1331 4 21.9556655558423 19.51614716074871 1.725
1332 4 21.9556655558423 19.51614716074871 5.174999999999999
1333 3 21.9556655558423 19.51614716074871 8.625000000000002
1334 1 21.9556655558423 19.51614716074871 12.075
1335 3 21.9556655558423 19.51614716074871 15.525
1336 5 21.9556655558423 19.51614716074871 18.975
1337 3 21.9556655558423 19.51614716074871 22.425
1338 1 21.9556655558423 19.51614716074871 25.87500000000001
1339 5 21.9556655558423 19.51614716074871 29.325
1340 1 21.9556655558423 19.51614716074871 32.775
1341 2 21.9556655558423 21.9556655558423 0
1342 3 21.9556655558423 21.9556655558423 3.450000000000001
1343 1 21.9556655558423 21.9556655558423 6.9
1344 3 21.9556655558423 21.9556655558423 10.35
1345 1 21.9556655558423 21.9556655558423 13.8
1346 5 21.9556655558423 21.9556655558423 20.7
1347 3 21.9556655558423 21.9556655558423 24.15000000000001
1348 3 21.9556655558423 21.9556655558423 27.6
1349 5 21.9556655558423 21.9556655558423 31.05
1350 2 21.9556655558423 21.9556655558423 17.25
1351 5 21.9556655558423 24.39518395093589 1.725
1352 2 21.9556655558423 24.39518395093589 8.625000000000002
1353 2 21.9556655558423 24.39518395093589 12.075
1354 4 21.9556655558423 24.39518395093589 22.425
1355 3 21.9556655558423 24.39518395093589 25.87500000000001
1356 1 21.9556655558423 24.39518395093589 29.325
1357 2 21.9556655558423 24.39518395093589 32.77500000000001
1358 3 21.9556655558423 24.39518395093589 5.175000000000002
1359 2 21.9556655558423 24.39518395093589 15.525
1360 1 21.9556655558423 24.39518395093589 18.975
1361 3 21.9556655558423 26.83470234602947 0
1362 4 21.9556655558423 26.83470234602947 10.35
1363 5 21.9556655558423 26.83470234602947 24.15000000000001
1364 5 21.9556655558423 26.83470234602947 27.6
1365 5 21.9556655558423 26.83470234602947 31.05
1366 2 21.9556655558423 26.83470234602948 3.450000000000001
1367 4 21.9556655558423 26.83470234602948 6.900000000000004
1368 3 21.9556655558423 26.83470234602948 13.8
1369 3 21.9556655558423 26.83470234602948 17.25
1370 4 21.9556655558423 26.83470234602948 20.7
1371 3 21.9556655558423 29.27422074112306 25.87500000000001
1372 2 21.9556655558423 29.27422074112306 29.325
1373 5 21.9556655558423 29.27422074112306 32.775
1374 1 21.9556655558423 29.27422074112307 1.725
1375 2 21.9556655558423 29.27422074112307 5.175000000000002
1376 3 21.9556655558423 29.27422074112307 8.625000000000002
1377 2 21.9556655558423 29.27422074112307 15.525
1378 3 21.9556655558423 29.27422074112307 18.975
1379 5 21.9556655558423 29.27422074112307 22.425
1380 5 21.9556655558423 29.27422074112307 12.075
1381 4 21.9556655558423 31.71373913621665 27.6
1382 3 21.9556655558423 31.71373913621665 31.05
1383 4 21.9556655558423 31.71373913621665 3.450000000000001
1384 1 21.9556655558423 31.71373913621665 6.9
1385 5 21.9556655558423 31.71373913621665 17.25
1386 1 21.9556655558423 31.71373913621665 20.7
1387 5 21.9556655558423 31.71373913621665 24.15
1388 5 21.9556655558423 31.71373913621666 1.915134717478395e-15
1389 2 21.9556655558423 31.71373913621666 10.35
1390 5 21.9556655558423 31.71373913621666 13.8
1391 5 21.9556655558423 34.15325753131025 1.725
1392 1 21.9556655558423 34.15325753131025 5.175000000000002
1393 1 21.9556655558423 34.15325753131025 8.625000000000002
1394 2 21.9556655558423 34.15325753131025 12.075
1395 4 21.9556655558423 34.15325753131025 15.525
1396 1 21.9556655558423 34.15325753131025 18.975
1397 1 21.9556655558423 34.15325753131025 22.425
1398 4 21.9556655558423 34.15325753131025 25.87500000000001
1399 1 21.9556655558423 34.15325753131025 29.325
1400 5 21.9556655558423 34.15325753131025 32.77500000000001
1401 2 24.39518395093589 2.439518395093586 8.625
1402 5 24.39518395093589 2.439518395093586 12.075
1403 4 24.39518395093589 2.439518395093586 15.525
1404 5 24.39518395093589 2.439518395093586 22.425
1405 3 24.39518395093589 2.439518395093586 25.875
1406 2 24.39518395093589 2.439518395093586 32.77500000000001
1407 3 24.39518395093589 2.439518395093588 1.725000000000001
1408 5 24.39518395093589 2.439518395093588 5.175000000000004
1409 2 24.39518395093589 2.43951839509359 18.975
1410 1 24.39518395093589 2.43951839509359 29.325
1411 5 24.39518395093589 4.879036790187174 10.35
1412 2 24.39518395093589 4.879036790187174 13.8
1413 2 24.39518395093589 4.879036790187174 24.15000000000001
1414 3 24.39518395093589 4.879036790187175 0
1415 2 24.39518395093589 4.879036790187175 6.900000000000002
1416 3 24.39518395093589 4.879036790187178 3.450000000000003
1417 1 24.39518395093589 4.879036790187178 17.25
1418 1 24.39518395093589 4.879036790187178 20.7
1419 5 24.39518395093589 4.879036790187178 27.60000000000001
1420 5 24.39518395093589 4.879036790187178 31.05
1421 2 24.39518395093589 7.318555185280761 12.075
1422 5 24.39518395093589 7.318555185280764 8.625
1423 2 24.39518395093589 7.318555185280766 1.725000000000001
1424 5 24.39518395093589 7.318555185280766 5.175000000000001
1425 1 24.39518395093589 7.318555185280766 15.525
1426 5 24.39518395093589 7.318555185280766 18.975
1427 2 24.39518395093589 7.318555185280766 22.425
1428 4 24.39518395093589 7.318555185280766 25.875
1429 4 24.39518395093589 7.318555185280766 29.325
1430 4 24.39518395093589 7.318555185280766 32.77500000000001
1431 1 24.39518395093589 9.758073580374351 10.35
1432 2 24.39518395093589 9.758073580374353 0
1433 1 24.39518395093589 9.758073580374353 3.450000000000003
1434 1 24.39518395093589 9.758073580374353 6.899999999999999
1435 5 24.39518395093589 9.758073580374353 13.8
1436 2 24.39518395093589 9.758073580374353 17.25
1437 4 24.39518395093589 9.758073580374353 20.7
1438 1 24.39518395093589 9.758073580374353 27.6
1439 4 24.39518395093589 9.758073580374353 31.05
1440 5 24.39518395093589 9.758073580374358 24.15000000000001
1441 5 24.39518395093589 12.19759197546794 1.725000000000001
1442 1 24.39518395093589 12.19759197546794 5.175000000000001
1443 3 24.39518395093589 12.19759197546794 8.625
1444 3 24.39518395093589 12.19759197546794 15.52500000000001
1445 2 24.39518395093589 12.19759197546794 18.975
1446 1 24.39518395093589 12.19759197546794 29.325
1447 2 24.39518395093589 12.19759197546794 32.77500000000001
1448 5 24.39518395093589 12.19759197546794 12.075
1449 5 24.39518395093589 12.19759197546795 22.425
1450 2 24.39518395093589 12.19759197546795 25.875
1451 5 24.39518395093589 14.63711037056153 3.450000000000003
1452 3 24.39518395093589 14.63711037056153 6.899999999999999
1453 3 24.39518395093589 14.63711037056153 17.25
1454 4 24.39518395093589 14.63711037056153 31.05
1455 1 24.39518395093589 14.63711037056153 0
1456 2 24.39518395093589 14.63711037056153 13.8
1457 1 24.39518395093589 14.63711037056153 10.35
1458 1 24.39518395093589 14.63711037056153 20.7
1459 1 24.39518395093589 14.63711037056153 24.15
1460 4 24.39518395093589 14.63711037056153 27.6
1461 5 24.39518395093589 17.07662876565512 5.175000000000001
1462 3 24.39518395093589 17.07662876565512 32.77500000000001
1463 1 24.39518395093589 17.07662876565512 1.725000000000001
1464 4 24.39518395093589 17.07662876565512 15.525
1465 5 24.39518395093589 17.07662876565512 8.625
1466 4 24.39518395093589 17.07662876565512 12.075
1467 4 24.39518395093589 17.07662876565512 18.975
1468 3 24.39518395093589 17.07662876565512 22.425
1469 2 24.39518395093589 17.07662876565512 25.875
1470 5 24.39518395093589 17.07662876565512 29.325
1471 3 24.39518395093589 19.51614716074871 0
1472 2 24.39518395093589 19.51614716074871 3.449999999999999
1473 3 24.39518395093589 19.51614716074871 6.900000000000002
1474 2 24.39518395093589 19.51614716074871 10.35
1475 5 24.39518395093589 19.51614716074871 13.8
1476 4 24.39518395093589 19.51614716074871 17.25
1477 5 24.39518395093589 19.51614716074871 20.7
1478 1 24.39518395093589 19.51614716074871 24.15000000000001
1479 5 24.39518395093589 19.51614716074871 27.6
1480 3 24.39518395093589 19.51614716074871 31.05
1481 2 24.39518395093589 21.9556655558423 1.725000000000001
1482 1 24.39518395093589 21.9556655558423 5.175000000000001
1483 2 24.39518395093589 21.9556655558423 8.625000000000004
1484 3 24.39518395093589 21.9556655558423 12.075
1485 3 24.39518395093589 21.9556655558423 18.975
1486 5 24.39518395093589 21.9556655558423 22.425
1487 3 24.39518395093589 21.9556655558423 25.875
1488 1 24.39518395093589 21.9556655558423 29.325
1489 5 24.39518395093589 21.9556655558423 32.77500000000001
1490 4 24.39518395093589 21.9556655558423 15.525
1491 3 24.39518395093589 24.39518395093589 0
1492 5 24.39518395093589 24.39518395093589 6.900000000000002
1493 1 24.39518395093589 24.39518395093589 10.35
1494 5 24.39518395093589 24.39518395093589 20.7
1495 5 24.39518395093589 24.39518395093589 24.15000000000001
1496 3 24.39518395093589 24.39518395093589 27.6
1497 1 24.39518395093589 24.39518395093589 31.05
1498 5 24.39518395093589 24.39518395093589 3.450000000000003
1499 1 24.39518395093589 24.39518395093589 13.8
1500 3 24.39518395093589 24.39518395093589 17.25
1501 4 24.39518395093589 26.83470234602947 8.625
1502 5 24.39518395093589 26.83470234602947 22.425
1503 1 24.39518395093589 26.83470234602947 25.875
1504 3 24.39518395093589 26.83470234602947 29.325
1505 1 24.39518395093589 26.83470234602947 32.775
1506 1 24.39518395093589 26.83470234602948 1.725000000000001
1507 1 24.39518395093589 26.83470234602948 5.175000000000004
1508 1 24.39518395093589 26.83470234602948 12.075
1509 5 24.39518395093589 26.83470234602948 15.525
1510 3 24.39518395093589 26.83470234602948 18.975
1511 1 24.39518395093589 29.27422074112306 24.15000000000001
1512 5 24.39518395093589 29.27422074112306 27.6
1513 2 24.39518395093589 29.27422074112306 31.05
1514 2 24.39518395093589 29.27422074112307 0
1515 2 24.39518395093589 29.27422074112307 3.450000000000003
1516 4 24.39518395093589 29.27422074112307 6.900000000000002
1517 2 24.39518395093589 29.27422074112307 13.8
1518 4 24.39518395093589 29.27422074112307 17.25
1519 1 24.39518395093589 29.27422074112307 20.7
1520 4 24.39518395093589 29.27422074112307 10.35
1521 1 24.39518395093589 31.71373913621665 25.875
1522 5 24.39518395093589 31.71373913621665 29.325
1523 5 24.39518395093589 31.71373913621665 1.725000000000001
1524 3 24.39518395093589 31.71373913621665 5.175000000000001
1525 4 24.39518395093589 31.71373913621665 15.525
1526 1 24.39518395093589 31.71373913621665 18.975
1527 5 24.39518395093589 31.71373913621665 22.425
1528 4 24.39518395093589 31.71373913621666 8.625000000000004
1529 1 24.39518395093589 31.71373913621666 12.075
1530 1 24.39518395093589 31.71373913621666 32.77500000000001
1531 4 24.39518395093589 34.15325753131025 0
1532 3 24.39518395093589 34.15325753131025 3.450000000000003
1533 5 24.39518395093589 34.15325753131025 6.900000000000002
1534 2 24.39518395093589 34.15325753131025 10.35
1535 1 24.39518395093589 34.15325753131025 13.8
1536 2 24.39518395093589 34.15325753131025 17.25
1537 3 24.39518395093589 34.15325753131025 20.7
1538 1 24.39518395093589 34.15325753131025 24.15000000000001
1539 5 24.39518395093589 34.15325753131025 27.6
1540 5 24.39518395093589 34.15325753131025 31.05
1541 4 26.83470234602948 2.439518395093586 6.899999999999999
1542 2 26.83470234602948 2.439518395093586 10.35
1543 3 26.83470234602948 2.439518395093586 13.8
1544 1 26.83470234602948 2.439518395093586 20.7
1545 1 26.83470234602948 2.439518395093586 24.15
1546 1 26.83470234602948 2.439518395093586 31.05
1547 2 26.83470234602948 2.439518395093588 0
1548 1 26.83470234602948 2.439518395093588 3.450000000000003
1549 1 26.83470234602948 2.43951839509359 17.25
1550 5 26.83470234602948 2.43951839509359 27.6
1551 2 26.83470234602948 4.879036790187174 8.625
1552 3 26.83470234602948 4.879036790187174 12.075
1553 1 26.83470234602948 4.879036790187174 22.425
1554 5 26.83470234602948 4.879036790187174 32.775
1555 3 26.83470234602948 4.879036790187175 5.175000000000001
1556 1 26.83470234602948 4.879036790187178 1.725000000000001
1557 5 26.83470234602948 4.879036790187178 15.525
1558 1 26.83470234602948 4.879036790187178 18.975
1559 5 26.83470234602948 4.879036790187178 25.87500000000001
1560 1 26.83470234602948 4.879036790187178 29.325
1561 4 26.83470234602948 7.318555185280761 10.35
1562 2 26.83470234602948 7.318555185280764 6.899999999999999
1563 1 26.83470234602948 7.318555185280766 0
1564 3 26.83470234602948 7.318555185280766 3.449999999999999
1565 4 26.83470234602948 7.318555185280766 13.8
1566 4 26.83470234602948 7.318555185280766 17.25
1567 3 26.83470234602948 7.318555185280766 20.7
1568 5 26.83470234602948 7.318555185280766 24.15
1569 1 26.83470234602948 7.318555185280766 27.6
1570 4 26.83470234602948 7.318555185280766 31.05
1571 2 26.83470234602948 9.758073580374351 8.625
1572 1 26.83470234602948 9.758073580374353 1.725000000000001
1573 4 26.83470234602948 9.758073580374353 5.174999999999997
1574 3 26.83470234602948 9.758073580374353 12.075
1575 5 26.83470234602948 9.758073580374353 15.525
1576 3 26.83470234602948 9.758073580374353 18.975
1577 1 26.83470234602948 9.758073580374353 25.875
1578 2 26.83470234602948 9.758073580374353 29.325
1579 1 26.83470234602948 9.758073580374353 32.775
1580 4 26.83470234602948 9.758073580374358 22.425
1581 4 26.83470234602948 12.19759197546794 0
1582 4 26.83470234602948 12.19759197546794 3.449999999999999
1583 2 26.83470234602948 12.19759197546794 6.899999999999999
1584 4 26.83470234602948 12.19759197546794 13.8
1585 1 26.83470234602948 12.19759197546794 17.25
1586 3 26.83470234602948 12.19759197546794 27.6
1587 3 26.83470234602948 12.19759197546794 31.05
1588 4 26.83470234602948 12.19759197546794 10.35
1589 1 26.83470234602948 12.19759197546795 20.7
1590 5 26.83470234602948 12.19759197546795 24.15
1591 4 26.83470234602948 14.63711037056153 1.725000000000001
1592 2 26.83470234602948 14.63711037056153 5.174999999999997
1593 3 26.83470234602948 14.63711037056153 15.525
1594 5 26.83470234602948 14.63711037056153 29.325
1595 4 26.83470234602948 14.63711037056153 32.775
1596 2 26.83470234602948 14.63711037056153 12.075
1597 5 26.83470234602948 14.63711037056153 8.625
1598 3 26.83470234602948 14.63711037056153 18.975
1599 3 26.83470234602948 14.63711037056153 22.425
1600 4 26.83470234602948 14.63711037056153 25.875
1601 4 26.83470234602948 17.07662876565512 3.449999999999999
1602 2 26.83470234602948 17.07662876565512 31.05
1603 3 26.83470234602948 17.07662876565512 0
1604 5 26.83470234602948 17.07662876565512 13.8
1605 4 26.83470234602948 17.07662876565512 6.899999999999999
1606 2 26.83470234602948 17.07662876565512 10.35
1607 5 26.83470234602948 17.07662876565512 17.25
1608 3 26.83470234602948 17.07662876565512 20.7
1609 5 26.83470234602948 17.07662876565512 24.15
1610 5 26.83470234602948 17.07662876565512 27.6
1611 1 26.83470234602948 19.51614716074871 32.775
1612 4 26.83470234602948 19.51614716074871 1.724999999999998
1613 5 26.83470234602948 19.51614716074871 5.175000000000001
1614 3 26.83470234602948 19.51614716074871 8.625
1615 3 26.83470234602948 19.51614716074871 12.075
1616 4 26.83470234602948 19.51614716074871 15.525
1617 2 26.83470234602948 19.51614716074871 18.975
1618 4 26.83470234602948 19.51614716074871 22.425
1619 2 26.83470234602948 19.51614716074871 25.875
1620 3 26.83470234602948 19.51614716074871 29.325
1621 4 26.83470234602948 21.9556655558423 0
1622 5 26.83470234602948 21.9556655558423 3.449999999999999
1623 5 26.83470234602948 21.9556655558423 6.900000000000002
1624 3 26.83470234602948 21.9556655558423 10.35
1625 3 26.83470234602948 21.9556655558423 17.25
1626 4 26.83470234602948 21.9556655558423 20.7
1627 2 26.83470234602948 21.9556655558423 24.15
1628 2 26.83470234602948 21.9556655558423 27.6
1629 1 26.83470234602948 21.9556655558423 31.05
1630 2 26.83470234602948 21.9556655558423 13.8
1631 1 26.83470234602948 24.39518395093589 5.175000000000001
1632 3 26.83470234602948 24.39518395093589 8.625
1633 5 26.83470234602948 24.39518395093589 18.975
1634 4 26.83470234602948 24.39518395093589 22.425
1635 5 26.83470234602948 24.39518395093589 25.875
1636 1 26.83470234602948 24.39518395093589 29.325
1637 3 26.83470234602948 24.39518395093589 32.775
1638 5 26.83470234602948 24.39518395093589 1.725000000000001
1639 5 26.83470234602948 24.39518395093589 12.075
1640 4 26.83470234602948 24.39518395093589 15.525
1641 1 26.83470234602948 26.83470234602947 6.899999999999999
1642 4 26.83470234602948 26.83470234602947 20.7
1643 1 26.83470234602948 26.83470234602947 24.15
1644 2 26.83470234602948 26.83470234602947 27.6
1645 3 26.83470234602948 26.83470234602947 31.05
1646 3 26.83470234602948 26.83470234602948 0
1647 5 26.83470234602948 26.83470234602948 3.450000000000003
1648 3 26.83470234602948 26.83470234602948 10.35
1649 3 26.83470234602948 26.83470234602948 13.8
1650 5 26.83470234602948 26.83470234602948 17.25
1651 1 26.83470234602948 29.27422074112306 22.425
1652 2 26.83470234602948 29.27422074112306 25.875
1653 3 26.83470234602948 29.27422074112306 29.325
1654 5 26.83470234602948 29.27422074112307 1.725000000000001
1655 4 26.83470234602948 29.27422074112307 5.175000000000001
1656 5 26.83470234602948 29.27422074112307 12.075
1657 3 26.83470234602948 29.27422074112307 15.525
1658 3 26.83470234602948 29.27422074112307 18.975
1659 5 26.83470234602948 29.27422074112307 8.625
1660 5 26.83470234602948 29.27422074112307 32.775
1661 1 26.83470234602948 31.71373913621665 24.15
1662 4 26.83470234602948 31.71373913621665 27.6
1663 2 26.83470234602948 31.71373913621665 0
1664 5 26.83470234602948 31.71373913621665 3.449999999999999
1665 4 26.83470234602948 31.71373913621665 13.8
1666 4 26.83470234602948 31.71373913621665 17.25
1667 5 26.83470234602948 31.71373913621665 20.7
1668 4 26.83470234602948 31.71373913621666 6.900000000000002
1669 3 26.83470234602948 31.71373913621666 10.35
1670 3 26.83470234602948 31.71373913621666 31.05
1671 3 26.83470234602948 34.15325753131025 1.725000000000001
1672 1 26.83470234602948 34.15325753131025 5.175000000000001
1673 2 26.83470234602948 34.15325753131025 8.625
1674 2 26.83470234602948 34.15325753131025 12.075
1675 4 26.83470234602948 34.15325753131025 15.525
1676 5 26.83470234602948 34.15325753131025 18.975
1677 5 26.83470234602948 34.15325753131025 22.425
1678 5 26.83470234602948 34.15325753131025 25.875
1679 1 26.83470234602948 34.15325753131025 29.325
1680 4 26.83470234602948 34.15325753131025 32.775
1681 2 29.27422074112307 2.439518395093586 5.174999999999997
1682 5 29.27422074112307 2.439518395093586 8.625
1683 3 29.27422074112307 2.439518395093586 12.075
1684 1 29.27422074112307 2.439518395093586 18.975
1685 3 29.27422074112307 2.439518395093586 22.425
1686 4 29.27422074112307 2.439518395093586 29.325
1687 4 29.27422074112307 2.439518395093586 32.775
1688 1 29.27422074112307 2.439518395093588 1.725000000000001
1689 3 29.27422074112307 2.43951839509359 15.525
1690 2 29.27422074112307 2.43951839509359 25.875
1691 3 29.27422074112307 4.879036790187174 6.899999999999999
1692 2 29.27422074112307 4.879036790187174 10.35
1693 4 29.27422074112307 4.879036790187174 20.7
1694 1 29.27422074112307 4.879036790187174 31.05
1695 5 29.27422074112307 4.879036790187175 3.449999999999999
1696 3 29.27422074112307 4.879036790187178 0
1697 5 29.27422074112307 4.879036790187178 13.8
1698 1 29.27422074112307 4.879036790187178 17.25
1699 2 29.27422074112307 4.879036790187178 24.15000000000001
1700 5 29.27422074112307 4.879036790187178 27.59999999999999
1701 1 29.27422074112307 7.318555185280761 8.625
1702 5 29.27422074112307 7.318555185280761 32.77500000000001
1703 5 29.27422074112307 7.318555185280764 5.174999999999997
1704 2 29.27422074112307 7.318555185280766 1.724999999999998
1705 1 29.27422074112307 7.318555185280766 12.075
1706 5 29.27422074112307 7.318555185280766 15.525
1707 5 29.27422074112307 7.318555185280766 18.97499999999999
1708 2 29.27422074112307 7.318555185280766 22.425
1709 4 29.27422074112307 7.318555185280766 25.875
1710 5 29.27422074112307 7.318555185280766 29.325
1711 4 29.27422074112307 9.758073580374351 6.899999999999999
1712 5 29.27422074112307 9.758073580374353 0
1713 1 29.27422074112307 9.758073580374353 3.449999999999995
1714 3 29.27422074112307 9.758073580374353 10.35
1715 4 29.27422074112307 9.758073580374353 13.8
1716 5 29.27422074112307 9.758073580374353 17.25
1717 5 29.27422074112307 9.758073580374353 24.15
1718 5 29.27422074112307 9.758073580374353 27.6
1719 2 29.27422074112307 9.758073580374353 31.05
1720 3 29.27422074112307 9.758073580374358 20.7
1721 5 29.27422074112307 12.19759197546794 1.724999999999998
1722 2 29.27422074112307 12.19759197546794 5.174999999999997
1723 3 29.27422074112307 12.19759197546794 12.075
1724 3 29.27422074112307 12.19759197546794 15.525
1725 1 29.27422074112307 12.19759197546794 25.875
1726 4 29.27422074112307 12.19759197546794 29.325
1727 5 29.27422074112307 12.19759197546794 32.775
1728 4 29.27422074112307 12.19759197546794 8.625
1729 3 29.27422074112307 12.19759197546795 18.975
1730 5 29.27422074112307 12.19759197546795 22.425
1731 3 29.27422074112307 14.63711037056153 0
1732 1 29.27422074112307 14.63711037056153 3.449999999999995
1733 2 29.27422074112307 14.63711037056153 13.8
1734 4 29.27422074112307 14.63711037056153 27.6
1735 3 29.27422074112307 14.63711037056153 31.05
1736 5 29.27422074112307 14.63711037056153 10.35
1737 2 29.27422074112307 14.63711037056153 6.899999999999999
1738 4 29.27422074112307 14.63711037056153 17.25
1739 2 29.27422074112307 14.63711037056153 20.7
1740 2 29.27422074112307 14.63711037056153 24.15
1741 3 29.27422074112307 17.07662876565512 1.724999999999998
1742 4 29.27422074112307 17.07662876565512 29.325
1743 2 29.27422074112307 17.07662876565512 32.77500000000001
1744 1 29.27422074112307 17.07662876565512 12.075
1745 3 29.27422074112307 17.07662876565512 5.174999999999997
1746 2 29.27422074112307 17.07662876565512 8.625
1747 2 29.27422074112307 17.07662876565512 15.525
1748 5 29.27422074112307 17.07662876565512 18.97499999999999
1749 5 29.27422074112307 17.07662876565512 22.425
1750 3 29.27422074112307 17.07662876565512 25.875
1751 3 29.27422074112307 19.51614716074871 31.05
1752 1 29.27422074112307 19.51614716074871 3.449999999999999
1753 5 29.27422074112307 19.51614716074871 6.899999999999999
1754 4 29.27422074112307 19.51614716074871 10.35
1755 3 29.27422074112307 19.51614716074871 13.8
1756 4 29.27422074112307 19.51614716074871 17.25
1757 2 29.27422074112307 19.51614716074871 20.7
1758 2 29.27422074112307 19.51614716074871 24.15
1759 3 29.27422074112307 19.51614716074871 27.59999999999999
1760 3 29.27422074112307 19.51614716074871 34.49999999999999
1761 4 29.27422074112307 21.95566555584229 32.775
1762 4 29.27422074112307 21.9556655558423 1.724999999999998
1763 3 29.27422074112307 21.9556655558423 5.175000000000001
1764 2 29.27422074112307 21.9556655558423 8.625
1765 5 29.27422074112307 21.9556655558423 15.525
1766 5 29.27422074112307 21.9556655558423 18.975
1767 3 29.27422074112307 21.9556655558423 22.425
1768 4 29.27422074112307 21.9556655558423 25.875
1769 4 29.27422074112307 21.9556655558423 29.325
1770 2 29.27422074112307 21.9556655558423 12.075
1771 3 29.27422074112307 24.39518395093589 3.449999999999999
1772 4 29.27422074112307 24.39518395093589 6.899999999999999
1773 1 29.27422074112307 24.39518395093589 17.25
1774 2 29.27422074112307 24.39518395093589 20.7
1775 1 29.27422074112307 24.39518395093589 24.15
1776 4 29.27422074112307 24.39518395093589 27.6
1777 1 29.27422074112307 24.39518395093589 31.05
1778 4 29.27422074112307 24.39518395093589 0
1779 1 29.27422074112307 24.39518395093589 10.35
1780 1 29.27422074112307 24.39518395093589 13.8
1781 1 29.27422074112307 26.83470234602947 5.174999999999997
1782 1 29.27422074112307 26.83470234602947 18.975
1783 3 29.27422074112307 26.83470234602947 22.425
1784 3 29.27422074112307 26.83470234602947 25.875
1785 4 29.27422074112307 26.83470234602947 29.325
1786 5 29.27422074112307 26.83470234602948 1.725000000000001
1787 1 29.27422074112307 26.83470234602948 8.625
1788 2 29.27422074112307 26.83470234602948 12.075
1789 1 29.27422074112307 26.83470234602948 15.525
1790 3 29.27422074112307 26.83470234602948 32.775
1791 5 29.27422074112307 29.27422074112306 20.7
1792 4 29.27422074112307 29.27422074112306 24.15
1793 1 29.27422074112307 29.27422074112306 27.59999999999999
1794 2 29.27422074112307 29.27422074112307 0
1795 2 29.27422074112307 29.27422074112307 3.449999999999999
1796 3 29.27422074112307 29.27422074112307 10.35
1797 2 29.27422074112307 29.27422074112307 13.8
1798 5 29.27422074112307 29.27422074112307 17.25
1799 5 29.27422074112307 29.27422074112307 6.899999999999999
1800 3 29.27422074112307 29.27422074112307 31.05
1801 1 29.27422074112307 31.71373913621665 22.425
1802 4 29.27422074112307 31.71373913621665 25.875
1803 4 29.27422074112307 31.71373913621665 1.724999999999998
1804 1 29.27422074112307 31.71373913621665 12.075
1805 4 29.27422074112307 31.71373913621665 15.525
1806 2 29.27422074112307 31.71373913621665 18.97499999999999
1807 1 29.27422074112307 31.71373913621666 5.175000000000001
1808 1 29.27422074112307 31.71373913621666 8.624999999999996
1809 3 29.27422074112307 31.71373913621666 29.325
1810 1 29.27422074112307 31.71373913621666 32.775
1811 1 29.27422074112307 34.15325753131025 0
1812 1 29.27422074112307 34.15325753131025 3.449999999999999
1813 5 29.27422074112307 34.15325753131025 6.899999999999999
1814 2 29.27422074112307 34.15325753131025 10.35
1815 1 29.27422074112307 34.15325753131025 13.8
1816 2 29.27422074112307 34.15325753131025 17.25
1817 1 29.27422074112307 34.15325753131025 20.7
1818 3 29.27422074112307 34.15325753131025 24.15
1819 2 29.27422074112307 34.15325753131025 27.6
1820 3 29.27422074112307 34.15325753131025 31.05
1821 5 31.71373913621665 2.439518395093586 3.449999999999999
1822 1 31.71373913621665 2.439518395093586 6.900000000000002
1823 4 31.71373913621665 2.439518395093586 10.35
1824 1 31.71373913621665 2.439518395093586 17.25
1825 5 31.71373913621665 2.439518395093586 20.7
1826 4 31.71373913621665 2.439518395093586 27.6
1827 5 31.71373913621665 2.439518395093586 31.05
1828 1 31.71373913621665 2.439518395093588 3.83026943495679e-15
1829 3 31.71373913621665 2.43951839509359 13.8
1830 1 31.71373913621665 2.43951839509359 24.15
1831 2 31.71373913621665 4.879036790187174 5.175000000000001
1832 5 31.71373913621665 4.879036790187174 8.625
1833 3 31.71373913621665 4.879036790187174 18.975
1834 1 31.71373913621665 4.879036790187174 29.325
1835 2 31.71373913621665 4.879036790187174 32.77500000000001
1836 3 31.71373913621665 4.879036790187175 1.725000000000001
1837 4 31.71373913621665 4.879036790187178 12.075
1838 3 31.71373913621665 4.879036790187178 15.525
1839 2 31.71373913621665 4.879036790187178 22.42500000000001
1840 1 31.71373913621665 4.879036790187178 25.875
1841 5 31.71373913621665 7.318555185280761 6.900000000000002
1842 3 31.71373913621665 7.318555185280761 31.05000000000001
1843 5 31.71373913621665 7.318555185280764 3.449999999999999
1844 4 31.71373913621665 7.318555185280766 0
1845 3 31.71373913621665 7.318555185280766 10.35
1846 2 31.71373913621665 7.318555185280766 13.8
1847 4 31.71373913621665 7.318555185280766 17.25
1848 5 31.71373913621665 7.318555185280766 20.7
1849 4 31.71373913621665 7.318555185280766 24.15
1850 1 31.71373913621665 7.318555185280766 27.6
1851 2 31.71373913621665 9.758073580374349 32.77500000000001
1852 2 31.71373913621665 9.758073580374351 5.175000000000001
1853 1 31.71373913621665 9.758073580374353 1.724999999999998
1854 1 31.71373913621665 9.758073580374353 8.625000000000004
1855 5 31.71373913621665 9.758073580374353 12.075
1856 3 31.71373913621665 9.758073580374353 15.525
1857 3 31.71373913621665 9.758073580374353 22.425
1858 1 31.71373913621665 9.758073580374353 25.875
1859 4 31.71373913621665 9.758073580374353 29.325
1860 3 31.71373913621665 9.758073580374358 18.975
1861 4 31.71373913621665 12.19759197546794 0
1862 2 31.71373913621665 12.19759197546794 3.449999999999999
1863 4 31.71373913621665 12.19759197546794 10.35
1864 5 31.71373913621665 12.19759197546794 13.8
1865 5 31.71373913621665 12.19759197546794 24.15
1866 4 31.71373913621665 12.19759197546794 27.6
1867 1 31.71373913621665 12.19759197546794 31.05
1868 1 31.71373913621665 12.19759197546794 6.900000000000002
1869 2 31.71373913621665 12.19759197546795 17.25
1870 2 31.71373913621665 12.19759197546795 20.7
1871 5 31.71373913621665 14.63711037056153 1.724999999999998
1872 4 31.71373913621665 14.63711037056153 12.075
1873 1 31.71373913621665 14.63711037056153 25.875
1874 4 31.71373913621665 14.63711037056153 29.325
1875 2 31.71373913621665 14.63711037056153 32.77500000000001
1876 1 31.71373913621665 14.63711037056153 8.625000000000004
1877 4 31.71373913621665 14.63711037056153 5.175000000000001
1878 2 31.71373913621665 14.63711037056153 15.525
1879 3 31.71373913621665 14.63711037056153 18.975
1880 4 31.71373913621665 14.63711037056153 22.425
1881 5 31.71373913621665 17.07662876565512 0
1882 2 31.71373913621665 17.07662876565512 27.6
1883 3 31.71373913621665 17.07662876565512 31.05000000000001
1884 1 31.71373913621665 17.07662876565512 10.35
1885 2 31.71373913621665 17.07662876565512 3.449999999999999
1886 2 31.71373913621665 17.07662876565512 6.900000000000002
1887 1 31.71373913621665 17.07662876565512 13.8
1888 4 31.71373913621665 17.07662876565512 17.25
1889 4 31.71373913621665 17.07662876565512 20.7
1890 3 31.71373913621665 17.07662876565512 24.15
1891 3 31.71373913621665 19.5161471607487 29.325
1892 1 31.71373913621665 19.5161471607487 32.77500000000001
1893 5 31.71373913621665 19.51614716074871 1.725000000000001
1894 3 31.71373913621665 19.51614716074871 5.175000000000001
1895 5 31.71373913621665 19.51614716074871 8.625
1896 5 31.71373913621665 19.51614716074871 12.075
1897 1 31.71373913621665 19.51614716074871 15.525
1898 2 31.71373913621665 19.51614716074871 18.975
1899 3 31.71373913621665 19.51614716074871 22.425
1900 5 31.71373913621665 19.51614716074871 25.875
1901 1 31.71373913621665 21.95566555584229 31.05
1902 1 31.71373913621665 21.95566555584229 0
1903 4 31.71373913621665 21.95566555584229 3.450000000000003
1904 2 31.71373913621665 21.95566555584229 6.900000000000002
1905 4 31.71373913621665 21.95566555584229 13.8
1906 3 31.71373913621665 21.95566555584229 17.25
1907 3 31.71373913621665 21.95566555584229 20.7
1908 3 31.71373913621665 21.95566555584229 24.15
1909 5 31.71373913621665 21.95566555584229 27.6
1910 5 31.71373913621665 21.9556655558423 10.35
1911 2 31.71373913621665 24.39518395093588 1.725000000000001
1912 5 31.71373913621665 24.39518395093588 5.175000000000001
1913 4 31.71373913621665 24.39518395093588 15.525
1914 1 31.71373913621665 24.39518395093588 18.975
1915 1 31.71373913621665 24.39518395093588 22.425
1916 4 31.71373913621665 24.39518395093588 25.875
1917 3 31.71373913621665 24.39518395093588 29.325
1918 5 31.71373913621665 24.39518395093589 8.625000000000004
1919 4 31.71373913621665 24.39518395093589 12.075
1920 4 31.71373913621665 24.39518395093589 32.77500000000001
1921 2 31.71373913621665 26.83470234602947 3.449999999999999
1922 3 31.71373913621665 26.83470234602947 17.25
1923 4 31.71373913621665 26.83470234602947 20.7
1924 1 31.71373913621665 26.83470234602947 24.15
1925 1 31.71373913621665 26.83470234602947 27.6
1926 2 31.71373913621665 26.83470234602947 3.83026943495679e-15
1927 2 31.71373913621665 26.83470234602947 6.900000000000002
1928 3 31.71373913621665 26.83470234602947 10.35
1929 2 31.71373913621665 26.83470234602947 13.8
1930 5 31.71373913621665 26.83470234602948 31.05
1931 1 31.71373913621665 29.27422074112306 18.975
1932 5 31.71373913621665 29.27422074112306 22.425
1933 3 31.71373913621665 29.27422074112306 25.875
1934 1 31.71373913621665 29.27422074112306 1.725000000000001
1935 5 31.71373913621665 29.27422074112306 8.625
1936 3 31.71373913621665 29.27422074112306 12.075
1937 4 31.71373913621665 29.27422074112306 15.525
1938 2 31.71373913621665 29.27422074112307 5.175000000000001
1939 2 31.71373913621665 29.27422074112307 29.325
1940 4 31.71373913621665 29.27422074112307 32.77500000000001
1941 2 31.71373913621665 31.71373913621665 20.7
1942 5 31.71373913621665 31.71373913621665 24.15
1943 5 31.71373913621665 31.71373913621665 0
1944 5 31.71373913621665 31.71373913621665 10.35
1945 3 31.71373913621665 31.71373913621665 13.8
1946 3 31.71373913621665 31.71373913621665 17.25
1947 2 31.71373913621665 31.71373913621665 3.450000000000003
1948 2 31.71373913621665 31.71373913621665 6.899999999999999
1949 2 31.71373913621665 31.71373913621665 27.6
1950 1 31.71373913621665 31.71373913621665 31.05
1951 1 31.71373913621665 34.15325753131024 1.725000000000001
1952 4 31.71373913621665 34.15325753131024 5.175000000000001
1953 2 31.71373913621665 34.15325753131024 8.625
1954 3 31.71373913621665 34.15325753131024 12.075
1955 5 31.71373913621665 34.15325753131024 15.525
1956 3 31.71373913621665 34.15325753131024 18.975
1957 4 31.71373913621665 34.15325753131024 22.425
1958 1 31.71373913621665 34.15325753131024 25.875
1959 2 31.71373913621665 34.15325753131024 29.325
1960 4 31.71373913621665 34.15325753131024 32.77500000000001
