# BCC equiatomic HfMoTaTiZr; profile=compact; x=[100]; seed=20260825

2000 atoms
5 atom types

0.0 34.5 xlo xhi
0.0 34.5 ylo yhi
0.0 34.5 zlo zhi
0 0 0 xy xz yz

Masses

1 178.49 # Hf
2 95.95 # Mo
3 180.94788 # Ta
4 47.867 # Ti
5 91.224 # Zr

Atoms # atomic

1 4 0 0 0
2 4 0 0 3.45
3 1 0 0 6.9
4 2 0 0 10.35
5 5 0 0 13.8
6 5 0 0 17.25
7 1 0 0 20.7
8 5 0 0 24.15
9 3 0 0 27.6
10 5 0 0 31.05
11 5 0 3.45 0
12 4 0 3.45 3.450000000000001
13 1 0 6.9 0
14 2 0 6.9 6.900000000000001
15 2 0 10.35 0
16 5 0 10.35 3.449999999999999
17 2 0 10.35 10.35
18 4 0 10.35 13.8
19 4 0 10.35 17.25
20 4 0 10.35 27.6
21 1 0 13.8 0
22 4 0 13.8 3.449999999999999
23 5 0 13.8 10.35
24 5 0 13.8 13.8
25 5 0 13.8 17.25
26 3 0 13.8 24.15000000000001
27 4 0 13.8 31.05
28 5 0 17.25 0
29 5 0 17.25 6.900000000000002
30 4 0 17.25 10.35
31 1 0 17.25 13.8
32 1 0 17.25 17.25
33 1 0 17.25 20.7
34 3 0 17.25 27.6
35 2 0 20.7 0
36 1 0 20.7 3.449999999999999
37 1 0 20.7 6.899999999999999
38 2 0 20.7 17.25
39 3 0 20.7 20.7
40 1 0 20.7 27.6
41 4 0 24.15 0
42 2 0 24.15 3.449999999999999
43 4 0 24.15 13.8
44 3 0 24.15 24.15
45 1 0 24.15 31.05
46 3 0 27.6 0
47 2 0 27.6 3.449999999999999
48 2 0 27.6 6.899999999999999
49 2 0 27.6 10.35
50 4 0 27.6 17.25
51 4 0 27.6 20.7
52 4 0 27.6 27.6
53 5 0 31.05 0
54 3 0 31.05 3.450000000000001
55 1 0 31.05 13.8
56 3 0 31.05 24.15000000000001
57 4 0 31.05 31.05
58 2 4.787836793695988e-16 3.45 10.35
59 2 4.787836793695988e-16 3.45 13.8
60 4 4.787836793695988e-16 3.45 20.7
61 1 4.787836793695988e-16 3.45 24.15
62 2 4.787836793695988e-16 3.45 27.6
63 5 4.787836793695988e-16 3.45 31.05
64 5 9.575673587391975e-16 6.899999999999999 10.35
65 3 9.575673587391975e-16 6.899999999999999 20.7
66 1 9.575673587391975e-16 6.899999999999999 24.15
67 3 9.575673587391975e-16 6.899999999999999 27.6
68 5 9.575673587391975e-16 10.35 6.899999999999999
69 3 1.915134717478395e-15 10.35 20.7
70 4 1.915134717478395e-15 10.35 24.15
71 2 1.915134717478395e-15 13.8 20.7
72 5 1.915134717478395e-15 20.7 10.35
73 2 1.915134717478395e-15 20.7 13.8
74 4 1.915134717478395e-15 20.7 24.15
75 2 1.915134717478395e-15 20.7 31.05
76 4 1.915134717478395e-15 24.15 6.9
77 5 1.915134717478395e-15 24.15 10.35
78 5 1.915134717478395e-15 24.15 20.7
79 4 1.915134717478395e-15 24.15 27.59999999999999
80 1 1.915134717478395e-15 27.6 24.15
81 3 1.915134717478395e-15 31.05 20.7
82 4 1.724999999999998 8.625000000000004 32.77500000000001
83 1 1.724999999999998 12.075 29.325
84 5 1.724999999999998 15.525 25.875
85 4 1.724999999999998 15.525 32.77500000000001
86 3 1.724999999999998 25.875 15.525
87 5 1.724999999999998 25.875 32.77500000000001
88 2 1.724999999999998 29.325 12.075
89 5 1.724999999999998 29.325 29.325
90 4 1.724999999999998 32.77500000000001 5.175000000000001
91 3 1.724999999999998 32.77500000000001 8.625000000000004
92 1 1.724999999999998 32.77500000000001 15.525
93 5 1.724999999999998 32.77500000000001 25.875
94 2 1.724999999999998 32.77500000000001 32.77500000000001
95 1 1.724999999999999 5.175000000000002 15.525
96 2 1.724999999999999 5.175000000000002 32.77500000000001
97 1 1.724999999999999 15.525 5.175000000000001
98 2 1.725 5.175000000000001 5.175
99 5 1.725 8.625000000000002 12.075
100 2 1.725 8.625000000000002 15.525
101 3 1.725 8.625000000000002 29.325
102 4 1.725 12.075 1.725
103 5 1.725 12.075 8.625000000000002
104 5 1.725 12.075 12.075
105 3 1.725 12.075 15.525
106 1 1.725 12.075 25.875
107 1 1.725 12.075 32.775
108 3 1.725 15.525 1.725
109 3 1.725 15.525 8.625
110 3 1.725 15.525 12.075
111 1 1.725 15.525 15.525
112 4 1.725 15.525 22.425
113 5 1.725 15.525 29.325
114 3 1.725 18.975 1.725
115 1 1.725 18.975 22.425
116 1 1.725 18.975 29.325
117 1 1.725 22.425 1.725
118 5 1.725 22.425 5.174999999999999
119 1 1.725 22.425 15.525
120 1 1.725 22.425 18.975
121 1 1.725 22.425 25.875
122 3 1.725 22.425 32.775
123 3 1.725 25.875 1.725
124 3 1.725 25.875 12.075
125 2 1.725 25.875 22.425
126 4 1.725 25.875 29.325
127 4 1.725 29.325 1.725
128 5 1.725 29.325 5.174999999999999
129 1 1.725 29.325 8.625000000000002
130 1 1.725 29.325 15.525
131 2 1.725 29.325 18.975
132 5 1.725 29.325 25.87500000000001
133 4 1.725 29.325 32.775
134 4 1.725 32.775 1.725000000000001
135 4 1.725 32.775 12.075
136 3 1.725 32.775 22.425
137 4 1.725 32.775 29.325
138 5 1.725 1.725 1.725
139 1 1.725 1.725 5.175000000000001
140 1 1.725 1.725 8.625000000000002
141 1 1.725 1.725 12.075
142 1 1.725 1.725 15.525
143 1 1.725 1.725 18.975
144 2 1.725 1.725 22.425
145 2 1.725 1.725 25.875
146 3 1.725 1.725 29.325
147 4 1.725 1.725 32.775
148 5 1.725 5.175000000000001 1.725000000000001
149 2 1.725 8.625000000000002 1.725
150 2 1.725000000000001 5.175 8.625
151 5 1.725000000000001 5.175 12.075
152 3 1.725000000000001 5.175 18.975
153 2 1.725000000000001 5.175 22.425
154 2 1.725000000000001 5.175 25.875
155 2 1.725000000000001 5.175 29.325
156 1 1.725000000000001 8.625 5.175000000000001
157 3 1.725000000000001 12.075 5.174999999999999
158 5 1.725000000000001 8.625 8.625
159 3 1.725000000000001 8.625 18.975
160 5 1.725000000000001 8.625 22.425
161 2 1.725000000000001 8.625 25.875
162 2 1.725000000000001 12.075 18.975
163 2 1.725000000000001 12.075 22.425
164 2 1.725000000000001 15.525 18.975
165 3 1.725000000000001 18.975 5.175000000000001
166 4 1.725000000000001 18.975 8.625
167 1 1.725000000000001 18.975 12.075
168 3 1.725000000000001 18.975 15.525
169 4 1.725000000000001 18.975 18.975
170 2 1.725000000000001 18.975 25.875
171 1 1.725000000000001 18.975 32.775
172 5 1.725000000000001 22.425 8.625000000000002
173 5 1.725000000000001 22.425 12.075
174 2 1.725000000000001 22.425 22.425
175 4 1.725000000000001 22.425 29.325
176 1 1.725000000000001 25.875 5.175000000000001
177 1 1.725000000000001 25.875 8.625
178 3 1.725000000000001 25.875 18.975
179 5 1.725000000000001 25.875 25.875
180 2 1.725000000000001 29.325 22.425
181 1 1.725000000000001 32.775 18.975
182 5 3.449999999999998 10.35 31.05
183 2 3.449999999999998 13.8 27.6
184 2 3.449999999999998 27.6 13.8
185 3 3.449999999999998 27.6 31.05
186 3 3.449999999999998 31.05 10.35
187 2 3.449999999999998 31.05 27.6
188 2 3.449999999999999 6.900000000000002 13.8
189 1 3.449999999999999 6.900000000000002 31.05
190 5 3.449999999999999 10.35 10.35
191 5 3.449999999999999 10.35 13.8
192 3 3.449999999999999 10.35 27.6
193 4 3.449999999999999 13.8 0
194 5 3.449999999999999 13.8 6.900000000000002
195 4 3.449999999999999 13.8 10.35
196 3 3.449999999999999 13.8 13.8
197 4 3.449999999999999 13.8 24.15
198 5 3.449999999999999 13.8 31.05
199 3 3.449999999999999 17.25 24.15
200 4 3.449999999999999 17.25 31.05
201 1 3.449999999999999 20.7 0
202 3 3.449999999999999 20.7 20.7
203 4 3.449999999999999 20.7 27.6
204 1 3.449999999999999 24.15 0
205 3 3.449999999999999 24.15 3.449999999999999
206 5 3.449999999999999 24.15 13.8
207 3 3.449999999999999 24.15 17.25
208 5 3.449999999999999 24.15 24.15
209 2 3.449999999999999 24.15 31.05
210 1 3.449999999999999 27.6 0
211 4 3.449999999999999 27.6 10.35
212 3 3.449999999999999 27.6 20.7
213 4 3.449999999999999 27.6 27.6
214 4 3.449999999999999 31.05 0
215 4 3.449999999999999 31.05 3.449999999999999
216 4 3.449999999999999 31.05 6.900000000000002
217 1 3.449999999999999 31.05 13.8
218 4 3.449999999999999 31.05 17.25
219 5 3.449999999999999 31.05 24.15000000000001
220 5 3.449999999999999 31.05 31.05
221 4 3.45 4.787836793695988e-16 10.35
222 2 3.45 4.787836793695988e-16 13.8
223 1 3.45 4.787836793695988e-16 20.7
224 2 3.45 4.787836793695988e-16 24.15
225 3 3.45 4.787836793695988e-16 27.6
226 2 3.45 4.787836793695988e-16 31.05
227 2 3.45 10.35 0
228 1 3.45 0 0
229 4 3.45 0 3.450000000000001
230 1 3.45 3.45 0
231 5 3.45 3.45 3.45
232 5 3.45 3.45 6.900000000000001
233 5 3.45 3.45 10.35
234 5 3.45 3.45 13.8
235 2 3.45 3.45 17.25
236 1 3.45 3.45 20.7
237 4 3.45 3.45 24.15
238 5 3.45 3.45 27.6
239 4 3.45 3.45 31.05
240 5 3.45 6.900000000000001 3.449999999999999
241 1 3.45 10.35 3.450000000000001
242 2 3.45 13.8 3.449999999999999
243 4 3.45 17.25 3.449999999999999
244 5 3.450000000000001 6.9 0
245 3 3.450000000000001 34.5 6.9
246 5 3.450000000000001 6.9 6.9
247 4 3.450000000000001 6.9 10.35
248 2 3.450000000000001 6.9 17.25
249 3 3.450000000000001 6.9 20.7
250 5 3.450000000000001 6.9 24.15
251 1 3.450000000000001 6.9 27.6
252 4 3.450000000000001 10.35 6.9
253 5 3.450000000000001 10.35 17.25
254 1 3.450000000000001 10.35 20.7
255 5 3.450000000000001 10.35 24.15
256 2 3.450000000000001 13.8 17.25
257 2 3.450000000000001 13.8 20.7
258 1 3.450000000000001 17.25 6.899999999999999
259 4 3.450000000000001 17.25 10.35
260 1 3.450000000000001 17.25 13.8
261 2 3.450000000000001 17.25 20.7
262 3 3.450000000000001 17.25 27.6
263 4 3.450000000000001 17.25 34.5
264 4 3.450000000000001 20.7 3.450000000000001
265 3 3.450000000000001 20.7 6.9
266 5 3.450000000000001 20.7 10.35
267 4 3.450000000000001 20.7 13.8
268 3 3.450000000000001 20.7 17.25
269 1 3.450000000000001 20.7 24.15
270 1 3.450000000000001 20.7 31.05
271 3 3.450000000000001 24.15 6.900000000000002
272 4 3.450000000000001 24.15 10.35
273 1 3.450000000000001 24.15 20.7
274 5 3.450000000000001 24.15 27.6
275 5 3.450000000000001 27.6 3.450000000000001
276 5 3.450000000000001 27.6 6.9
277 4 3.450000000000001 27.6 17.25
278 3 3.450000000000001 27.6 24.15
279 3 3.450000000000001 31.05 20.7
280 4 3.450000000000002 34.5 17.25
281 5 3.450000000000003 17.25 17.25
282 2 5.174999999999997 12.075 29.325
283 3 5.174999999999997 29.325 12.075
284 3 5.174999999999997 29.325 29.325
285 4 5.174999999999999 8.625000000000002 12.075
286 5 5.174999999999999 8.625000000000002 29.325
287 4 5.174999999999999 8.625000000000002 32.77500000000001
288 5 5.174999999999999 12.075 8.625
289 3 5.174999999999999 12.075 12.075
290 4 5.174999999999999 12.075 25.875
291 4 5.174999999999999 15.525 25.875
292 2 5.174999999999999 18.975 22.425
293 1 5.174999999999999 18.975 29.325
294 4 5.174999999999999 22.425 18.975
295 3 5.174999999999999 22.425 25.875
296 3 5.174999999999999 25.875 1.725
297 1 5.174999999999999 25.875 12.075
298 1 5.174999999999999 25.875 15.525
299 1 5.174999999999999 25.875 22.425
300 3 5.174999999999999 25.875 29.325
301 4 5.174999999999999 25.875 32.77500000000001
302 1 5.174999999999999 29.325 8.625
303 2 5.174999999999999 29.325 18.975
304 5 5.174999999999999 29.325 25.875
305 1 5.174999999999999 32.77500000000001 8.625
306 1 5.174999999999999 32.77500000000001 25.875
307 4 5.175 1.725000000000001 8.625
308 1 5.175 1.725000000000001 12.075
309 2 5.175 1.725000000000001 18.975
310 5 5.175 1.725000000000001 22.425
311 1 5.175 1.725000000000001 25.875
312 1 5.175 1.725000000000001 29.325
313 1 5.175 8.625 1.725
314 5 5.175 12.075 1.725000000000001
315 1 5.175 18.975 1.725
316 2 5.175000000000001 1.725 5.175
317 2 5.175000000000001 1.725 1.725000000000001
318 2 5.175000000000001 5.175000000000001 1.725
319 4 5.175000000000001 5.175000000000001 5.175000000000001
320 4 5.175000000000001 5.175000000000001 8.625
321 1 5.175000000000001 5.175000000000001 12.075
322 4 5.175000000000001 5.175000000000001 15.525
323 4 5.175000000000001 5.175000000000001 18.975
324 5 5.175000000000001 5.175000000000001 22.425
325 5 5.175000000000001 5.175000000000001 25.875
326 2 5.175000000000001 5.175000000000001 29.325
327 1 5.175000000000001 5.175000000000001 32.77500000000001
328 2 5.175000000000001 8.625 5.175000000000001
329 2 5.175000000000001 8.625 8.625
330 3 5.175000000000001 8.625 15.525
331 1 5.175000000000001 8.625 18.975
332 4 5.175000000000001 8.625 22.425
333 5 5.175000000000001 8.625 25.875
334 1 5.175000000000001 12.075 5.175000000000001
335 5 5.175000000000001 12.075 15.525
336 3 5.175000000000001 12.075 18.975
337 1 5.175000000000001 12.075 22.425
338 4 5.175000000000001 12.075 32.77500000000001
339 4 5.175000000000001 15.525 5.175000000000001
340 3 5.175000000000001 15.525 8.625
341 1 5.175000000000001 15.525 12.075
342 3 5.175000000000001 15.525 22.425
343 1 5.175000000000001 15.525 29.325
344 2 5.175000000000001 15.525 32.775
345 3 5.175000000000001 18.975 5.174999999999999
346 3 5.175000000000001 18.975 8.625000000000002
347 1 5.175000000000001 18.975 12.075
348 4 5.175000000000001 18.975 18.975
349 2 5.175000000000001 18.975 25.875
350 4 5.175000000000001 22.425 1.725000000000001
351 2 5.175000000000001 22.425 5.175000000000001
352 2 5.175000000000001 22.425 8.625
353 5 5.175000000000001 22.425 12.075
354 3 5.175000000000001 22.425 15.525
355 4 5.175000000000001 22.425 22.425
356 5 5.175000000000001 22.425 29.325
357 3 5.175000000000001 22.425 32.77500000000001
358 3 5.175000000000001 25.875 5.175000000000002
359 2 5.175000000000001 25.875 8.624999999999998
360 5 5.175000000000001 25.875 18.975
361 2 5.175000000000001 25.875 25.875
362 5 5.175000000000001 29.325 1.725000000000001
363 5 5.175000000000001 29.325 5.175000000000001
364 4 5.175000000000001 29.325 15.525
365 2 5.175000000000001 29.325 22.425
366 4 5.175000000000001 29.325 32.77500000000001
367 3 5.175000000000001 32.77500000000001 1.724999999999998
368 3 5.175000000000001 32.77500000000001 5.175000000000001
369 4 5.175000000000001 32.77500000000001 12.075
370 3 5.175000000000001 32.77500000000001 15.525
371 4 5.175000000000001 32.77500000000001 22.425
372 3 5.175000000000001 32.77500000000001 29.325
373 5 5.175000000000001 32.77500000000001 32.775
374 1 5.175000000000002 1.724999999999999 15.525
375 2 5.175000000000002 1.724999999999999 32.77500000000001
376 1 5.175000000000002 15.525 1.724999999999998
377 5 5.175000000000002 15.525 15.525
378 4 5.175000000000002 15.525 18.975
379 5 5.175000000000002 18.975 15.525
380 4 5.175000000000002 18.975 32.775
381 3 5.175000000000002 32.775 18.975
382 3 6.899999999999999 10.35 10.35
383 5 6.899999999999999 10.35 27.6
384 2 6.899999999999999 10.35 31.05
385 5 6.899999999999999 13.8 27.6
386 3 6.899999999999999 17.25 24.15
387 5 6.899999999999999 20.7 20.7
388 3 6.899999999999999 20.7 27.6
389 4 6.899999999999999 24.15 17.25000000000001
390 1 6.899999999999999 24.15 24.15000000000001
391 1 6.899999999999999 27.6 0
392 1 6.899999999999999 27.6 10.35
393 4 6.899999999999999 27.6 13.8
394 4 6.899999999999999 27.6 20.7
395 2 6.899999999999999 27.6 27.6
396 1 6.899999999999999 27.6 31.05
397 3 6.899999999999999 31.05 10.35
398 1 6.899999999999999 31.05 27.6
399 5 6.899999999999999 9.575673587391975e-16 10.35
400 2 6.899999999999999 9.575673587391975e-16 20.7
401 1 6.899999999999999 9.575673587391975e-16 24.15
402 3 6.899999999999999 9.575673587391975e-16 27.6
403 1 6.899999999999999 10.35 0
404 5 6.899999999999999 20.7 0
405 1 6.9 0 0
406 3 6.9 0 6.900000000000001
407 3 6.9 3.450000000000001 0
408 5 6.9 3.450000000000001 6.9
409 4 6.9 3.450000000000001 10.35
410 1 6.9 3.450000000000001 17.25
411 4 6.9 3.450000000000001 20.7
412 5 6.9 3.450000000000001 24.15
413 1 6.9 3.450000000000001 27.6
414 2 6.9 6.9 0
415 3 6.9 6.9 3.450000000000001
416 3 6.9 6.9 6.9
417 1 6.9 6.9 10.35
418 4 6.9 6.9 13.8
419 3 6.9 6.9 17.25
420 3 6.9 6.9 20.7
421 2 6.9 6.9 24.15
422 2 6.9 6.9 27.6
423 1 6.9 6.9 31.05
424 1 6.9 10.35 3.450000000000001
425 1 6.9 10.35 6.9
426 3 6.9 10.35 13.8
427 3 6.9 10.35 17.25
428 3 6.9 10.35 20.7
429 3 6.9 10.35 24.15
430 3 6.9 13.8 6.899999999999999
431 5 6.9 13.8 10.35
432 2 6.9 13.8 24.15
433 2 6.9 17.25 3.450000000000001
434 5 6.9 17.25 6.9
435 1 6.9 17.25 10.35
436 1 6.9 17.25 20.7
437 3 6.9 17.25 27.59999999999999
438 1 6.9 17.25 31.05
439 1 6.9 20.7 3.449999999999999
440 5 6.9 20.7 6.900000000000002
441 1 6.9 20.7 10.35
442 2 6.9 20.7 17.25
443 3 6.9 20.7 24.15
444 4 6.9 24.15 1.915134717478395e-15
445 1 6.9 24.15 3.450000000000001
446 1 6.9 24.15 6.9
447 4 6.9 24.15 10.35
448 3 6.9 24.15 13.8
449 1 6.9 24.15 20.7
450 1 6.9 24.15 27.6
451 4 6.9 24.15 31.05
452 3 6.9 27.6 3.450000000000003
453 5 6.9 27.6 6.899999999999999
454 3 6.9 27.6 17.25
455 5 6.9 27.6 24.15
456 5 6.9 31.05 6.899999999999999
457 3 6.9 31.05 17.25
458 3 6.9 31.05 24.15
459 4 6.9 34.5 3.45
460 1 6.900000000000001 3.45 3.449999999999999
461 5 6.900000000000001 13.8 0
462 5 6.900000000000001 17.25 34.5
463 5 6.900000000000001 34.5 13.8
464 2 6.900000000000001 34.5 17.25
465 3 6.900000000000001 34.5 31.05
466 2 6.900000000000002 3.449999999999999 13.8
467 5 6.900000000000002 3.449999999999999 31.05
468 5 6.900000000000002 13.8 3.449999999999999
469 1 6.900000000000002 13.8 13.8
470 2 6.900000000000002 13.8 17.25
471 2 6.900000000000002 13.8 20.7
472 3 6.900000000000002 13.8 31.05
473 3 6.900000000000002 17.25 13.8
474 1 6.900000000000002 17.25 17.25
475 5 6.900000000000002 20.7 13.8
476 2 6.900000000000002 20.7 31.05
477 4 6.900000000000002 31.05 0
478 1 6.900000000000002 31.05 3.449999999999999
479 4 6.900000000000002 31.05 13.8
480 4 6.900000000000002 31.05 20.7
481 4 6.900000000000002 31.05 31.05
482 3 8.624999999999998 15.525 25.875
483 1 8.624999999999998 18.975 22.425
484 4 8.624999999999998 22.425 18.975
485 3 8.624999999999998 22.425 25.87500000000001
486 3 8.624999999999998 25.875 15.52500000000001
487 1 8.624999999999998 25.875 22.425
488 2 8.625 1.725000000000001 5.175000000000001
489 5 8.625 1.725000000000001 8.625
490 3 8.625 1.725000000000001 18.975
491 2 8.625 1.725000000000001 22.425
492 1 8.625 1.725000000000001 25.875
493 2 8.625 5.175 1.725
494 2 8.625 5.175000000000001 5.175000000000001
495 5 8.625 5.175000000000001 8.625
496 1 8.625 5.175000000000001 15.525
497 2 8.625 5.175000000000001 18.975
498 2 8.625 5.175000000000001 22.425
499 1 8.625 5.175000000000001 25.875
500 5 8.625 8.625 1.725000000000001
501 1 8.625 8.625 5.175000000000001
502 4 8.625 8.625 8.625
503 4 8.625 8.625 12.075
504 1 8.625 8.625 15.525
505 2 8.625 8.625 18.975
506 3 8.625 8.625 22.425
507 3 8.625 8.625 25.875
508 4 8.625 8.625 29.325
509 5 8.625 8.625 32.77500000000001
510 2 8.625 12.075 8.625
511 1 8.625 12.075 25.875
512 1 8.625 12.075 29.325
513 3 8.625 15.525 5.174999999999999
514 3 8.625 15.525 8.625000000000002
515 1 8.625 15.525 22.425
516 2 8.625 18.975 1.725000000000001
517 3 8.625 18.975 5.175000000000001
518 3 8.625 18.975 8.625
519 1 8.625 18.975 18.975
520 2 8.625 18.975 25.875
521 2 8.625 18.975 29.325
522 3 8.625 22.425 1.725
523 4 8.625 22.425 5.175000000000002
524 3 8.625 22.425 8.624999999999998
525 4 8.625 22.425 15.525
526 3 8.625 22.425 22.425
527 4 8.625 25.875 1.725000000000001
528 2 8.625 25.875 5.175000000000001
529 5 8.625 25.875 8.625
530 4 8.625 25.875 12.075
531 1 8.625 25.875 18.975
532 2 8.625 25.875 25.875
533 1 8.625 25.875 29.325
534 2 8.625 25.875 32.77500000000001
535 1 8.625 29.325 8.625
536 5 8.625 29.325 12.075
537 4 8.625 29.325 18.975
538 5 8.625 29.325 25.875
539 4 8.625 29.325 29.325
540 4 8.625 32.77500000000001 8.625
541 4 8.625 32.77500000000001 25.875
542 1 8.625000000000002 1.725 12.075
543 2 8.625000000000002 1.725 15.525
544 5 8.625000000000002 1.725 29.325
545 4 8.625000000000002 1.725 1.725
546 2 8.625000000000002 5.174999999999999 12.075
547 1 8.625000000000002 5.174999999999999 29.325
548 2 8.625000000000002 5.174999999999999 32.77500000000001
549 5 8.625000000000002 12.075 1.725
550 1 8.625000000000002 12.075 5.174999999999999
551 4 8.625000000000002 12.075 12.075
552 1 8.625000000000002 12.075 15.525
553 5 8.625000000000002 12.075 18.975
554 2 8.625000000000002 12.075 22.425
555 2 8.625000000000002 15.525 1.725
556 3 8.625000000000002 15.525 12.075
557 4 8.625000000000002 15.525 15.525
558 2 8.625000000000002 15.525 18.975
559 2 8.625000000000002 15.525 29.325
560 2 8.625000000000002 15.525 32.77500000000001
561 5 8.625000000000002 18.975 12.075
562 2 8.625000000000002 18.975 15.525
563 5 8.625000000000002 22.425 12.075
564 2 8.625000000000002 22.425 29.325
565 5 8.625000000000002 22.425 32.77500000000001
566 2 8.625000000000002 29.325 1.725000000000001
567 1 8.625000000000002 29.325 5.174999999999997
568 3 8.625000000000002 29.325 15.525
569 1 8.625000000000002 29.325 22.425
570 3 8.625000000000002 32.77500000000001 5.174999999999997
571 2 8.625000000000002 32.77500000000001 15.525
572 2 8.625000000000002 32.77500000000001 22.425
573 4 8.625000000000004 1.724999999999998 32.77500000000001
574 5 8.625000000000004 12.075 32.775
575 3 8.625000000000004 18.975 32.77500000000001
576 5 8.625000000000004 29.325 32.775
577 3 8.625000000000004 32.77500000000001 1.724999999999998
578 5 8.625000000000004 32.77500000000001 12.075
579 4 8.625000000000004 32.77500000000001 18.97499999999999
580 1 8.625000000000004 32.77500000000001 29.325
581 1 8.625000000000004 32.77500000000001 32.77500000000001
582 3 10.35 17.25 24.15
583 3 10.35 20.7 20.7
584 5 10.35 24.15 17.25
585 3 10.35 24.15 24.15000000000001
586 3 10.35 1.915134717478395e-15 20.7
587 5 10.35 1.915134717478395e-15 24.15
588 4 10.35 3.450000000000001 6.9
589 5 10.35 3.450000000000001 17.25
590 4 10.35 3.450000000000001 20.7
591 4 10.35 3.450000000000001 24.15
592 2 10.35 6.9 3.450000000000001
593 3 10.35 6.9 6.9
594 5 10.35 6.9 13.8
595 5 10.35 6.9 17.25
596 4 10.35 6.9 20.7
597 5 10.35 6.9 24.15
598 4 10.35 13.8 6.9
599 4 10.35 13.8 24.15
600 5 10.35 13.8 27.6
601 5 10.35 17.25 3.449999999999999
602 4 10.35 17.25 6.900000000000002
603 4 10.35 17.25 20.7
604 3 10.35 20.7 1.915134717478395e-15
605 3 10.35 20.7 3.450000000000001
606 1 10.35 20.7 6.9
607 3 10.35 20.7 17.25
608 3 10.35 20.7 24.15
609 5 10.35 20.7 27.6
610 4 10.35 24.15 0
611 5 10.35 24.15 3.450000000000003
612 2 10.35 24.15 6.899999999999999
613 5 10.35 24.15 13.8
614 4 10.35 24.15 20.7
615 3 10.35 27.6 13.8
616 1 10.35 27.6 20.7
617 4 10.35 0 0
618 3 10.35 0 3.449999999999999
619 4 10.35 0 10.35
620 3 10.35 0 13.8
621 2 10.35 0 17.25
622 5 10.35 0 27.6
623 3 10.35 9.575673587391975e-16 6.899999999999999
624 5 10.35 3.449999999999999 10.35
625 5 10.35 3.449999999999999 13.8
626 3 10.35 3.449999999999999 27.6
627 4 10.35 3.45 0
628 3 10.35 3.45 3.450000000000001
629 5 10.35 6.899999999999999 10.35
630 5 10.35 6.899999999999999 27.6
631 5 10.35 6.899999999999999 31.05
632 1 10.35 6.899999999999999 0
633 2 10.35 10.35 0
634 5 10.35 10.35 3.449999999999999
635 1 10.35 10.35 6.899999999999999
636 4 10.35 10.35 10.35
637 3 10.35 10.35 13.8
638 5 10.35 10.35 17.25
639 3 10.35 10.35 20.7
640 2 10.35 10.35 24.15
641 5 10.35 10.35 27.6
642 3 10.35 10.35 31.05
643 4 10.35 13.8 0
644 3 10.35 13.8 3.449999999999999
645 1 10.35 13.8 10.35
646 1 10.35 13.8 13.8
647 5 10.35 13.8 17.25
648 2 10.35 13.8 20.7
649 4 10.35 17.25 0
650 3 10.35 17.25 10.35
651 4 10.35 17.25 13.8
652 3 10.35 17.25 17.25
653 3 10.35 17.25 27.6
654 4 10.35 17.25 31.05000000000001
655 4 10.35 20.7 10.35
656 1 10.35 20.7 13.8
657 5 10.35 24.15 10.35
658 2 10.35 24.15 27.6
659 1 10.35 24.15 31.05
660 3 10.35 27.6 0
661 2 10.35 27.6 3.449999999999999
662 2 10.35 27.6 6.899999999999999
663 5 10.35 27.6 10.35
664 3 10.35 27.6 17.25
665 1 10.35 27.6 24.15
666 5 10.35 27.6 27.6
667 4 10.35 27.6 31.05
668 4 10.35 31.05 6.899999999999999
669 4 10.35 31.05 10.35
670 1 10.35 31.05 17.25
671 3 10.35 31.05 24.15
672 4 10.35 31.05 27.6
673 5 10.35 3.449999999999998 31.05
674 5 10.35 13.8 31.05
675 4 10.35 20.7 31.05
676 4 10.35 31.05 0
677 2 10.35 31.05 3.449999999999995
678 4 10.35 31.05 13.8
679 1 10.35 31.05 20.7
680 5 10.35 34.5 31.05
681 3 10.35 31.05 31.05
682 1 12.075 18.975 22.425
683 5 12.075 22.425 18.975
684 1 12.075 1.725000000000001 5.174999999999999
685 1 12.075 1.725000000000001 18.975
686 2 12.075 1.725000000000001 22.425
687 2 12.075 5.175 1.725000000000001
688 5 12.075 5.175000000000001 5.175000000000001
689 3 12.075 5.175000000000001 15.525
690 4 12.075 5.175000000000001 18.975
691 2 12.075 5.175000000000001 22.425
692 2 12.075 5.175000000000001 32.77500000000001
693 5 12.075 8.625000000000004 32.775
694 3 12.075 15.525 5.175000000000001
695 2 12.075 15.525 22.425
696 3 12.075 15.525 25.875
697 5 12.075 15.525 32.77500000000001
698 2 12.075 18.975 1.725
699 3 12.075 18.975 5.175000000000002
700 5 12.075 18.975 18.975
701 1 12.075 22.425 1.725000000000001
702 1 12.075 22.425 5.175000000000001
703 1 12.075 22.425 15.525
704 2 12.075 22.425 22.425
705 2 12.075 22.425 25.875
706 1 12.075 22.425 32.77500000000001
707 4 12.075 25.875 15.525
708 1 12.075 25.875 22.425
709 5 12.075 25.875 32.775
710 3 12.075 32.77500000000001 5.175000000000001
711 1 12.075 32.77500000000001 8.625000000000004
712 1 12.075 32.77500000000001 15.525
713 4 12.075 32.77500000000001 22.425
714 3 12.075 32.77500000000001 25.875
715 4 12.075 32.77500000000001 32.77500000000001
716 1 12.075 1.725 1.725
717 5 12.075 1.725 8.625000000000002
718 2 12.075 1.725 12.075
719 1 12.075 1.725 15.525
720 4 12.075 1.725 25.875
721 4 12.075 1.725 32.775
722 1 12.075 5.174999999999999 8.625
723 4 12.075 5.174999999999999 12.075
724 3 12.075 5.174999999999999 25.875
725 1 12.075 8.625000000000002 1.725
726 3 12.075 8.625000000000002 5.174999999999999
727 2 12.075 8.625000000000002 12.075
728 4 12.075 8.625000000000002 15.525
729 1 12.075 8.625000000000002 18.975
730 1 12.075 8.625000000000002 22.425
731 3 12.075 12.075 1.725
732 5 12.075 12.075 5.174999999999999
733 5 12.075 12.075 8.625000000000002
734 5 12.075 12.075 12.075
735 2 12.075 12.075 15.525
736 3 12.075 12.075 18.975
737 4 12.075 12.075 22.425
738 4 12.075 12.075 25.875
739 1 12.075 12.075 29.325
740 2 12.075 12.075 32.775
741 3 12.075 15.525 1.725
742 3 12.075 15.525 8.625000000000004
743 2 12.075 15.525 12.075
744 4 12.075 15.525 15.525
745 1 12.075 15.525 18.975
746 4 12.075 18.975 8.625000000000002
747 2 12.075 18.975 12.075
748 1 12.075 18.975 15.525
749 4 12.075 18.975 25.87500000000001
750 2 12.075 18.975 29.32500000000001
751 3 12.075 18.975 32.775
752 2 12.075 22.425 8.625
753 3 12.075 22.425 12.075
754 3 12.075 25.875 1.725000000000001
755 1 12.075 25.875 5.174999999999997
756 1 12.075 25.875 12.075
757 5 12.075 25.875 18.975
758 3 12.075 29.325 12.075
759 5 12.075 29.325 18.975
760 5 12.075 32.775 1.724999999999998
761 5 12.075 32.775 12.075
762 1 12.075 32.775 18.975
763 2 12.075 1.724999999999998 29.325
764 3 12.075 5.174999999999997 29.325
765 5 12.075 8.625 8.625
766 3 12.075 8.625 25.875
767 5 12.075 8.625 29.325
768 4 12.075 15.525 29.325
769 1 12.075 22.425 29.325
770 3 12.075 25.875 8.625
771 1 12.075 25.875 25.875
772 1 12.075 25.875 29.325
773 3 12.075 29.325 1.724999999999998
774 1 12.075 29.325 5.174999999999997
775 2 12.075 29.325 8.625
776 4 12.075 29.325 15.525
777 1 12.075 29.325 22.425
778 2 12.075 29.325 25.875
779 4 12.075 29.325 29.325
780 2 12.075 29.325 32.775
781 5 12.075 32.775 29.325
782 2 13.8 20.7 20.7
783 1 13.8 1.915134717478395e-15 20.7
784 1 13.8 3.450000000000001 17.25
785 5 13.8 3.450000000000001 20.7
786 4 13.8 10.35 31.05
787 4 13.8 17.25 3.450000000000001
788 4 13.8 17.25 20.7
789 1 13.8 17.25 24.15000000000001
790 4 13.8 17.25 31.05
791 4 13.8 20.7 0
792 2 13.8 20.7 3.450000000000003
793 4 13.8 20.7 17.25
794 2 13.8 24.15000000000001 17.25
795 1 13.8 31.05 10.35
796 3 13.8 31.05 17.25
797 1 13.8 0 0
798 2 13.8 0 3.449999999999999
799 3 13.8 0 10.35
800 4 13.8 0 13.8
801 5 13.8 0 17.25
802 4 13.8 0 24.15000000000001
803 2 13.8 0 31.05
804 2 13.8 3.449999999999999 0
805 3 13.8 3.449999999999999 6.900000000000002
806 2 13.8 3.449999999999999 10.35
807 5 13.8 3.449999999999999 13.8
808 1 13.8 3.449999999999999 24.15
809 4 13.8 3.449999999999999 31.05
810 4 13.8 3.45 3.449999999999999
811 5 13.8 6.900000000000001 0
812 5 13.8 6.900000000000002 3.449999999999999
813 3 13.8 6.900000000000002 13.8
814 5 13.8 6.900000000000002 17.25
815 2 13.8 6.900000000000002 20.7
816 4 13.8 6.900000000000002 31.05
817 3 13.8 10.35 0
818 2 13.8 10.35 3.449999999999999
819 3 13.8 10.35 10.35
820 2 13.8 10.35 13.8
821 4 13.8 10.35 17.25
822 1 13.8 10.35 20.7
823 3 13.8 13.8 0
824 4 13.8 13.8 3.449999999999999
825 2 13.8 13.8 6.900000000000002
826 1 13.8 13.8 10.35
827 5 13.8 13.8 13.8
828 2 13.8 13.8 17.25
829 5 13.8 13.8 20.7
830 3 13.8 13.8 24.15
831 4 13.8 13.8 27.6
832 2 13.8 13.8 31.05
833 5 13.8 17.25 0
834 4 13.8 17.25 6.900000000000004
835 1 13.8 17.25 10.35
836 5 13.8 17.25 13.8
837 1 13.8 17.25 17.25
838 2 13.8 20.7 6.900000000000002
839 2 13.8 20.7 10.35
840 1 13.8 20.7 13.8
841 1 13.8 20.7 24.15000000000001
842 5 13.8 20.7 27.60000000000001
843 1 13.8 20.7 31.05
844 1 13.8 24.15 0
845 3 13.8 24.15 3.449999999999999
846 3 13.8 24.15 13.8
847 4 13.8 24.15 20.7
848 4 13.8 24.15 24.15
849 3 13.8 24.15 31.05
850 3 13.8 27.6 13.8
851 4 13.8 27.6 20.7
852 2 13.8 27.6 31.05
853 3 13.8 31.05 0
854 5 13.8 31.05 3.449999999999999
855 2 13.8 31.05 6.900000000000002
856 5 13.8 31.05 13.8
857 2 13.8 31.05 20.7
858 2 13.8 31.05 24.15
859 3 13.8 31.05 27.6
860 2 13.8 31.05 31.05
861 5 13.8 34.5 6.9
862 1 13.8 3.449999999999998 27.6
863 2 13.8 6.9 6.899999999999999
864 5 13.8 6.9 10.35
865 3 13.8 6.9 24.15
866 3 13.8 10.35 6.9
867 1 13.8 10.35 24.15
868 1 13.8 10.35 27.6
869 2 13.8 17.25 27.6
870 2 13.8 24.15 6.899999999999999
871 2 13.8 24.15 10.35
872 4 13.8 27.6 0
873 1 13.8 27.6 3.449999999999995
874 5 13.8 27.6 10.35
875 5 13.8 27.6 17.25
876 5 13.8 34.5 27.6
877 2 13.8 6.899999999999999 27.6
878 2 13.8 24.15 27.6
879 1 13.8 27.6 6.899999999999999
880 3 13.8 27.6 24.15
881 2 13.8 27.6 27.6
882 2 15.525 1.725000000000001 18.975
883 4 15.525 12.075 29.325
884 1 15.525 18.975 1.725000000000001
885 4 15.525 18.975 18.975
886 3 15.525 18.975 22.425
887 5 15.525 18.975 29.325
888 5 15.525 22.425 18.975
889 2 15.525 29.325 12.075
890 2 15.525 29.325 18.975
891 2 15.525 29.325 29.325
892 3 15.525 1.725 1.725
893 5 15.525 1.725 8.625
894 2 15.525 1.725 12.075
895 3 15.525 1.725 15.525
896 4 15.525 1.725 22.425
897 3 15.525 1.725 29.325
898 4 15.525 5.175000000000002 15.525
899 5 15.525 5.175000000000002 18.975
900 1 15.525 8.625000000000002 1.725
901 3 15.525 8.625000000000002 12.075
902 1 15.525 8.625000000000002 15.525
903 2 15.525 8.625000000000002 18.975
904 1 15.525 8.625000000000002 29.325
905 4 15.525 8.625000000000002 32.77500000000001
906 5 15.525 12.075 1.725
907 1 15.525 12.075 8.625000000000004
908 5 15.525 12.075 12.075
909 2 15.525 12.075 15.525
910 1 15.525 12.075 18.975
911 2 15.525 15.525 1.725
912 1 15.525 15.525 5.175000000000002
913 4 15.525 15.525 8.625000000000002
914 4 15.525 15.525 12.075
915 3 15.525 15.525 15.525
916 2 15.525 15.525 18.975
917 4 15.525 15.525 22.425
918 3 15.525 15.525 25.87500000000001
919 5 15.525 15.525 29.325
920 1 15.525 15.525 32.77500000000001
921 4 15.525 18.975 5.175000000000004
922 4 15.525 18.975 8.625
923 4 15.525 18.975 12.075
924 5 15.525 18.975 15.525
925 1 15.525 22.425 1.725000000000001
926 1 15.525 22.425 15.525
927 4 15.525 25.87500000000001 15.525
928 4 15.525 29.325 1.724999999999998
929 2 15.525 29.325 8.625000000000004
930 2 15.525 29.325 15.525
931 3 15.525 32.77500000000001 8.625000000000004
932 4 15.525 32.77500000000001 15.525
933 1 15.525 1.724999999999998 25.875
934 5 15.525 1.724999999999998 32.77500000000001
935 4 15.525 1.724999999999999 5.175000000000001
936 4 15.525 5.175000000000001 5.175000000000001
937 5 15.525 5.175000000000001 8.625
938 4 15.525 5.175000000000001 12.075
939 3 15.525 5.175000000000001 22.425
940 2 15.525 5.175000000000001 29.325
941 3 15.525 5.175000000000001 32.775
942 5 15.525 5.175000000000002 1.724999999999998
943 1 15.525 8.625 5.174999999999999
944 1 15.525 8.625 8.625000000000002
945 3 15.525 8.625 22.425
946 1 15.525 12.075 5.175000000000001
947 1 15.525 12.075 22.425
948 3 15.525 12.075 25.875
949 1 15.525 12.075 32.77500000000001
950 2 15.525 18.975 25.875
951 1 15.525 18.975 32.77500000000001
952 5 15.525 22.425 5.175000000000001
953 5 15.525 22.425 8.625
954 3 15.525 22.425 12.075
955 4 15.525 22.425 22.425
956 1 15.525 22.425 25.87500000000001
957 2 15.525 22.425 29.325
958 5 15.525 22.425 32.775
959 5 15.525 25.875 1.724999999999998
960 4 15.525 25.875 12.075
961 4 15.525 25.875 18.97499999999999
962 4 15.525 25.875 22.425
963 2 15.525 25.875 29.325
964 1 15.525 25.875 32.77500000000001
965 4 15.525 29.325 5.175000000000001
966 2 15.525 29.325 22.425
967 1 15.525 29.325 25.875
968 1 15.525 29.325 32.77500000000001
969 1 15.525 32.77500000000001 1.724999999999998
970 2 15.525 32.77500000000001 5.175000000000001
971 5 15.525 32.77500000000001 12.075
972 1 15.525 32.77500000000001 18.975
973 3 15.525 32.77500000000001 22.425
974 2 15.525 32.77500000000001 25.875
975 3 15.525 32.77500000000001 29.325
976 3 15.525 32.77500000000001 32.77500000000001
977 2 15.525 5.174999999999999 25.875
978 1 15.525 8.624999999999998 25.875
979 3 15.525 25.875 5.174999999999997
980 1 15.525 25.875 8.625
981 4 15.52500000000001 25.875 25.875
982 3 17.25 13.8 27.6
983 4 17.25 27.6 13.8
984 4 17.25 0 0
985 3 17.25 0 6.900000000000002
986 2 17.25 0 10.35
987 5 17.25 0 13.8
988 3 17.25 0 17.25
989 5 17.25 0 20.7
990 3 17.25 0 27.6
991 4 17.25 3.450000000000001 6.899999999999999
992 3 17.25 3.450000000000001 10.35
993 4 17.25 3.450000000000001 13.8
994 3 17.25 3.450000000000001 20.7
995 5 17.25 3.450000000000001 27.6
996 1 17.25 3.450000000000001 34.5
997 2 17.25 3.450000000000003 17.25
998 4 17.25 6.9 3.450000000000001
999 2 17.25 6.9 6.9
1000 2 17.25 6.9 10.35
1001 5 17.25 6.9 20.7
1002 1 17.25 6.9 27.59999999999999
1003 3 17.25 6.9 31.05
1004 4 17.25 6.900000000000001 34.5
1005 3 17.25 6.900000000000002 13.8
1006 4 17.25 6.900000000000002 17.25
1007 5 17.25 10.35 3.449999999999999
1008 3 17.25 10.35 6.900000000000002
1009 2 17.25 10.35 20.7
1010 1 17.25 10.35 0
1011 4 17.25 10.35 10.35
1012 4 17.25 10.35 13.8
1013 4 17.25 10.35 17.25
1014 5 17.25 10.35 27.6
1015 1 17.25 10.35 31.05000000000001
1016 3 17.25 13.8 3.450000000000001
1017 3 17.25 13.8 20.7
1018 1 17.25 13.8 24.15000000000001
1019 3 17.25 13.8 31.05
1020 5 17.25 13.8 0
1021 2 17.25 13.8 6.900000000000004
1022 4 17.25 13.8 10.35
1023 1 17.25 13.8 13.8
1024 2 17.25 13.8 17.25
1025 3 17.25 17.25 0
1026 5 17.25 17.25 3.450000000000003
1027 3 17.25 17.25 6.900000000000002
1028 1 17.25 17.25 10.35
1029 4 17.25 17.25 13.8
1030 5 17.25 17.25 17.25
1031 2 17.25 17.25 20.7
1032 4 17.25 17.25 24.15000000000001
1033 5 17.25 17.25 27.6
1034 5 17.25 17.25 31.05
1035 2 17.25 20.7 0
1036 2 17.25 20.7 3.450000000000003
1037 3 17.25 20.7 6.899999999999999
1038 2 17.25 20.7 10.35
1039 5 17.25 20.7 13.8
1040 4 17.25 20.7 17.25
1041 2 17.25 20.7 20.7
1042 3 17.25 20.7 27.6
1043 1 17.25 24.15000000000001 0
1044 5 17.25 24.15000000000001 13.8
1045 5 17.25 24.15000000000001 17.25
1046 1 17.25 27.6 0
1047 2 17.25 27.6 3.449999999999999
1048 3 17.25 27.6 6.900000000000002
1049 1 17.25 27.6 10.35
1050 1 17.25 27.6 17.25
1051 4 17.25 27.6 20.7
1052 4 17.25 27.6 27.6
1053 5 17.25 27.6 31.05000000000001
1054 4 17.25 31.05 6.900000000000002
1055 4 17.25 31.05 10.35
1056 1 17.25 31.05 13.8
1057 5 17.25 31.05 17.25
1058 1 17.25 31.05 27.6
1059 4 17.25 31.05 34.49999999999999
1060 3 17.25 34.5 3.450000000000001
1061 4 17.25 34.5 24.15000000000001
1062 5 17.25 34.5 31.05
1063 5 17.25 3.449999999999999 24.15
1064 3 17.25 3.449999999999999 31.05
1065 2 17.25 3.45 3.449999999999999
1066 1 17.25 6.899999999999999 24.15
1067 2 17.25 10.35 24.15
1068 2 17.25 20.7 24.15
1069 4 17.25 20.7 31.05
1070 1 17.25 24.15 3.449999999999999
1071 1 17.25 24.15 6.899999999999999
1072 2 17.25 24.15 10.35
1073 2 17.25 24.15 20.7
1074 3 17.25 24.15 24.15000000000001
1075 5 17.25 24.15 27.59999999999999
1076 3 17.25 24.15 31.05
1077 3 17.25 27.6 24.15
1078 1 17.25 31.05 3.449999999999999
1079 3 17.25 31.05 20.7
1080 1 17.25 31.05 24.15
1081 5 17.25 31.05 31.05
1082 4 18.975 8.625000000000004 32.77500000000001
1083 2 18.975 15.525 25.875
1084 1 18.975 15.525 32.77500000000001
1085 2 18.975 25.875 15.525
1086 3 18.975 25.875 32.77500000000001
1087 1 18.975 32.77500000000001 8.625
1088 4 18.975 32.77500000000001 15.52500000000001
1089 5 18.975 32.77500000000001 25.875
1090 3 18.975 32.77500000000001 32.77500000000001
1091 4 18.975 1.725 1.725
1092 2 18.975 1.725 22.425
1093 4 18.975 1.725 29.325
1094 2 18.975 1.725000000000001 5.175000000000001
1095 2 18.975 1.725000000000001 8.625
1096 2 18.975 1.725000000000001 12.075
1097 4 18.975 1.725000000000001 15.525
1098 1 18.975 1.725000000000001 18.975
1099 2 18.975 1.725000000000001 25.875
1100 5 18.975 1.725000000000001 32.775
1101 5 18.975 5.174999999999999 22.425
1102 1 18.975 5.174999999999999 29.325
1103 5 18.975 5.175 1.725
1104 2 18.975 5.175000000000001 5.174999999999999
1105 5 18.975 5.175000000000001 8.625000000000002
1106 2 18.975 5.175000000000001 12.075
1107 4 18.975 5.175000000000001 18.975
1108 5 18.975 5.175000000000001 25.875
1109 4 18.975 5.175000000000002 15.525
1110 1 18.975 5.175000000000002 32.775
1111 1 18.975 8.624999999999998 22.425
1112 5 18.975 8.625 1.725000000000001
1113 4 18.975 8.625 5.175000000000001
1114 4 18.975 8.625 8.625
1115 2 18.975 8.625 18.975
1116 3 18.975 8.625 25.875
1117 4 18.975 8.625 29.325
1118 2 18.975 8.625000000000002 12.075
1119 4 18.975 8.625000000000002 15.525
1120 1 18.975 12.075 22.425
1121 4 18.975 12.075 1.725
1122 5 18.975 12.075 5.175000000000002
1123 1 18.975 12.075 18.975
1124 5 18.975 12.075 8.625000000000002
1125 1 18.975 12.075 12.075
1126 4 18.975 12.075 15.525
1127 5 18.975 12.075 25.87500000000001
1128 3 18.975 12.075 29.32500000000001
1129 2 18.975 12.075 32.775
1130 3 18.975 15.525 1.725000000000001
1131 2 18.975 15.525 18.975
1132 3 18.975 15.525 22.425
1133 2 18.975 15.525 29.325
1134 2 18.975 15.525 5.175000000000004
1135 1 18.975 15.525 8.625
1136 1 18.975 15.525 12.075
1137 4 18.975 15.525 15.525
1138 1 18.975 18.975 1.725000000000001
1139 3 18.975 18.975 5.175000000000001
1140 3 18.975 18.975 8.625
1141 4 18.975 18.975 12.075
1142 5 18.975 18.975 15.525
1143 4 18.975 18.975 18.975
1144 1 18.975 18.975 22.425
1145 5 18.975 18.975 25.875
1146 3 18.975 18.975 29.325
1147 4 18.975 18.975 32.775
1148 5 18.975 22.425 1.725000000000001
1149 3 18.975 22.425 5.174999999999997
1150 1 18.975 22.425 8.625
1151 4 18.975 22.425 12.075
1152 4 18.975 22.425 15.525
1153 1 18.975 22.425 18.975
1154 4 18.975 22.425 25.875
1155 4 18.975 22.425 32.775
1156 4 18.975 25.875 1.725000000000001
1157 2 18.975 25.875 5.175000000000001
1158 5 18.975 25.875 8.625
1159 1 18.975 25.875 12.075
1160 5 18.975 25.875 18.975
1161 5 18.975 25.875 22.42500000000001
1162 2 18.975 25.875 25.875
1163 2 18.975 25.875 29.325
1164 4 18.975 29.325 1.724999999999998
1165 1 18.975 29.325 5.175000000000001
1166 3 18.975 29.325 8.625
1167 4 18.975 29.325 12.075
1168 4 18.975 29.325 15.525
1169 1 18.975 29.325 18.975
1170 2 18.975 29.325 25.875
1171 1 18.975 29.325 29.32500000000001
1172 1 18.975 29.325 32.77499999999999
1173 2 18.975 32.775 1.725000000000001
1174 2 18.975 32.775 5.175000000000004
1175 2 18.975 32.775 12.075
1176 3 18.975 32.775 18.975
1177 1 18.975 32.775 22.425
1178 3 18.975 32.775 29.325
1179 1 18.975 22.425 22.425
1180 5 18.975 22.425 29.325
1181 2 18.975 29.325 22.425
1182 3 20.7 10.35 31.05
1183 2 20.7 31.05 10.35
1184 1 20.7 6.900000000000002 13.8
1185 4 20.7 6.900000000000002 31.05
1186 3 20.7 10.35 10.35
1187 1 20.7 10.35 13.8
1188 4 20.7 13.8 6.900000000000002
1189 2 20.7 13.8 10.35
1190 3 20.7 13.8 13.8
1191 4 20.7 13.8 24.15000000000001
1192 5 20.7 13.8 27.60000000000001
1193 4 20.7 13.8 31.05
1194 2 20.7 17.25 24.15
1195 3 20.7 17.25 31.05
1196 3 20.7 24.15 13.8
1197 4 20.7 24.15 17.25
1198 3 20.7 24.15 24.15
1199 3 20.7 24.15 31.05
1200 5 20.7 27.6 13.8
1201 5 20.7 27.6 31.05
1202 2 20.7 31.05 6.900000000000002
1203 4 20.7 31.05 13.8
1204 3 20.7 31.05 17.25
1205 3 20.7 31.05 24.15000000000001
1206 3 20.7 31.05 27.60000000000001
1207 1 20.7 31.05 31.05
1208 3 20.7 0 0
1209 2 20.7 0 3.449999999999999
1210 2 20.7 0 6.899999999999999
1211 1 20.7 0 17.25
1212 1 20.7 0 20.7
1213 1 20.7 0 27.6
1214 3 20.7 1.915134717478395e-15 10.35
1215 4 20.7 1.915134717478395e-15 13.8
1216 3 20.7 1.915134717478395e-15 24.15
1217 5 20.7 1.915134717478395e-15 31.05
1218 1 20.7 3.449999999999999 0
1219 2 20.7 3.449999999999999 20.7
1220 1 20.7 3.449999999999999 27.6
1221 2 20.7 3.450000000000001 3.450000000000001
1222 4 20.7 3.450000000000001 6.9
1223 2 20.7 3.450000000000001 10.35
1224 2 20.7 3.450000000000001 13.8
1225 5 20.7 3.450000000000001 17.25
1226 5 20.7 3.450000000000001 24.15
1227 3 20.7 3.450000000000001 31.05
1228 2 20.7 6.899999999999999 20.7
1229 3 20.7 6.899999999999999 27.6
1230 5 20.7 6.899999999999999 0
1231 4 20.7 6.9 3.449999999999999
1232 5 20.7 6.9 6.900000000000002
1233 5 20.7 6.9 10.35
1234 5 20.7 6.9 17.25
1235 2 20.7 6.9 24.15
1236 4 20.7 10.35 20.7
1237 4 20.7 10.35 1.915134717478395e-15
1238 5 20.7 10.35 3.450000000000001
1239 1 20.7 10.35 6.9
1240 1 20.7 10.35 17.25
1241 4 20.7 10.35 24.15
1242 4 20.7 10.35 27.6
1243 4 20.7 13.8 20.7
1244 5 20.7 13.8 0
1245 3 20.7 13.8 3.450000000000003
1246 4 20.7 13.8 17.25
1247 4 20.7 17.25 0
1248 2 20.7 17.25 3.450000000000003
1249 3 20.7 17.25 6.899999999999999
1250 5 20.7 17.25 10.35
1251 3 20.7 17.25 13.8
1252 5 20.7 17.25 17.25
1253 1 20.7 17.25 20.7
1254 1 20.7 17.25 27.6
1255 4 20.7 20.7 0
1256 1 20.7 20.7 3.449999999999999
1257 5 20.7 20.7 6.899999999999999
1258 4 20.7 20.7 10.35
1259 5 20.7 20.7 13.8
1260 5 20.7 20.7 17.25
1261 5 20.7 20.7 20.7
1262 2 20.7 20.7 24.15
1263 1 20.7 20.7 27.6
1264 5 20.7 20.7 31.05
1265 5 20.7 24.15 3.83026943495679e-15
1266 2 20.7 24.15 3.449999999999999
1267 5 20.7 24.15 6.900000000000002
1268 4 20.7 24.15 10.35
1269 3 20.7 24.15 20.7
1270 1 20.7 24.15 27.6
1271 4 20.7 27.6 0
1272 1 20.7 27.6 3.449999999999999
1273 5 20.7 27.6 6.899999999999999
1274 5 20.7 27.6 10.35
1275 5 20.7 27.6 17.25
1276 2 20.7 27.6 20.70000000000001
1277 5 20.7 27.6 24.15
1278 5 20.7 27.6 27.6
1279 4 20.7 31.05 0
1280 3 20.7 31.05 3.450000000000003
1281 4 20.7 31.05 20.7
1282 2 22.425 8.625000000000002 12.075
1283 1 22.425 8.625000000000002 29.325
1284 5 22.425 8.625000000000002 32.77500000000001
1285 1 22.425 12.075 8.625
1286 1 22.425 12.075 12.075
1287 2 22.425 12.075 29.325
1288 4 22.425 29.325 8.625
1289 4 22.425 29.325 12.075
1290 3 22.425 29.325 29.325
1291 5 22.425 32.77500000000001 8.625
1292 1 22.425 1.725000000000001 8.625000000000002
1293 5 22.425 1.725000000000001 12.075
1294 5 22.425 1.725000000000001 22.425
1295 2 22.425 1.725000000000001 29.325
1296 2 22.425 5.175000000000001 1.725000000000001
1297 2 22.425 5.175000000000001 5.175000000000001
1298 1 22.425 5.175000000000001 8.625
1299 3 22.425 5.175000000000001 12.075
1300 3 22.425 5.175000000000001 15.525
1301 5 22.425 5.175000000000001 22.425
1302 3 22.425 5.175000000000001 29.325
1303 5 22.425 5.175000000000001 32.77500000000001
1304 3 22.425 8.625 1.725
1305 3 22.425 8.625 5.175000000000002
1306 3 22.425 8.625 8.624999999999998
1307 3 22.425 8.625 15.525
1308 4 22.425 8.625 22.425
1309 4 22.425 12.075 1.725000000000001
1310 2 22.425 12.075 5.175000000000001
1311 1 22.425 12.075 15.525
1312 2 22.425 12.075 22.425
1313 1 22.425 12.075 25.875
1314 3 22.425 12.075 32.77500000000001
1315 5 22.425 15.525 5.175000000000001
1316 4 22.425 15.525 8.625
1317 3 22.425 15.525 12.075
1318 4 22.425 15.525 22.425
1319 5 22.425 15.525 25.87500000000001
1320 5 22.425 15.525 29.325
1321 5 22.425 15.525 32.775
1322 3 22.425 18.975 22.425
1323 2 22.425 18.975 29.325
1324 5 22.425 22.425 1.725000000000001
1325 2 22.425 22.425 5.175000000000001
1326 5 22.425 22.425 8.625
1327 2 22.425 22.425 12.075
1328 1 22.425 22.425 15.525
1329 2 22.425 22.425 18.975
1330 2 22.425 22.425 22.425
1331 3 22.425 22.425 25.875
1332 3 22.425 22.425 29.325
1333 5 22.425 22.425 32.77500000000001
1334 3 22.425 25.875 12.075
1335 4 22.425 25.875 15.525
1336 3 22.425 25.875 22.425
1337 4 22.425 25.875 29.325
1338 1 22.425 25.875 32.77500000000001
1339 5 22.425 29.325 1.725000000000001
1340 5 22.425 29.325 5.175000000000001
1341 4 22.425 29.325 15.52500000000001
1342 1 22.425 29.325 18.97500000000001
1343 2 22.425 29.325 22.425
1344 1 22.425 29.325 25.875
1345 4 22.425 29.325 32.77500000000001
1346 3 22.425 32.77500000000001 5.175000000000001
1347 5 22.425 32.77500000000001 12.075
1348 4 22.425 32.77500000000001 15.525
1349 4 22.425 32.77500000000001 22.425
1350 2 22.425 32.77500000000001 25.87500000000001
1351 5 22.425 32.77500000000001 29.325
1352 2 22.425 32.77500000000001 32.775
1353 2 22.425 1.725 1.725
1354 2 22.425 1.725 5.174999999999999
1355 5 22.425 1.725 15.525
1356 5 22.425 1.725 18.975
1357 5 22.425 1.725 25.875
1358 5 22.425 1.725 32.775
1359 2 22.425 5.174999999999999 18.975
1360 2 22.425 5.174999999999999 25.875
1361 4 22.425 8.624999999999998 18.975
1362 2 22.425 8.624999999999998 25.87500000000001
1363 5 22.425 12.075 18.975
1364 4 22.425 15.525 18.975
1365 3 22.425 15.525 1.725000000000001
1366 1 22.425 15.525 15.525
1367 3 22.425 18.975 1.725000000000001
1368 3 22.425 18.975 5.174999999999997
1369 3 22.425 18.975 8.625
1370 2 22.425 18.975 12.075
1371 5 22.425 18.975 15.525
1372 3 22.425 18.975 18.975
1373 4 22.425 18.975 25.875
1374 4 22.425 18.975 32.775
1375 2 22.425 25.875 1.724999999999998
1376 5 22.425 25.875 5.175000000000001
1377 5 22.425 25.875 8.624999999999996
1378 2 22.425 25.875 18.975
1379 5 22.425 25.875 25.875
1380 3 22.425 32.775 1.725000000000001
1381 3 22.425 32.775 18.975
1382 5 24.15 1.915134717478395e-15 6.9
1383 5 24.15 1.915134717478395e-15 10.35
1384 2 24.15 1.915134717478395e-15 20.7
1385 5 24.15 1.915134717478395e-15 27.59999999999999
1386 3 24.15 3.450000000000001 6.900000000000002
1387 4 24.15 3.450000000000001 10.35
1388 3 24.15 3.450000000000001 20.7
1389 4 24.15 3.450000000000001 27.6
1390 3 24.15 6.9 1.915134717478395e-15
1391 4 24.15 6.9 3.450000000000001
1392 2 24.15 6.9 6.9
1393 3 24.15 6.9 10.35
1394 4 24.15 6.9 13.8
1395 3 24.15 6.9 20.7
1396 3 24.15 6.9 27.6
1397 4 24.15 6.9 31.05
1398 4 24.15 10.35 0
1399 3 24.15 10.35 3.450000000000003
1400 3 24.15 10.35 6.899999999999999
1401 1 24.15 10.35 13.8
1402 1 24.15 10.35 20.7
1403 5 24.15 10.35 10.35
1404 2 24.15 10.35 27.6
1405 2 24.15 10.35 31.05
1406 4 24.15 13.8 6.899999999999999
1407 4 24.15 13.8 10.35
1408 2 24.15 13.8 27.6
1409 4 24.15 20.7 3.83026943495679e-15
1410 1 24.15 20.7 3.449999999999999
1411 3 24.15 20.7 6.900000000000002
1412 1 24.15 20.7 10.35
1413 3 24.15 20.7 20.7
1414 3 24.15 20.7 27.6
1415 2 24.15 27.6 0
1416 4 24.15 27.6 3.450000000000003
1417 1 24.15 27.6 6.899999999999999
1418 4 24.15 27.6 10.35
1419 2 24.15 27.6 13.8
1420 4 24.15 27.6 20.7
1421 2 24.15 27.6 27.6
1422 5 24.15 27.6 31.05
1423 3 24.15 31.05 6.899999999999999
1424 3 24.15 31.05 10.35
1425 1 24.15 31.05 27.6
1426 5 24.15 0 0
1427 5 24.15 0 3.449999999999999
1428 2 24.15 0 13.8
1429 5 24.15 0 24.15
1430 3 24.15 0 31.05
1431 3 24.15 3.449999999999999 0
1432 1 24.15 3.449999999999999 3.449999999999999
1433 2 24.15 3.449999999999999 13.8
1434 4 24.15 3.449999999999999 17.25
1435 5 24.15 3.449999999999999 24.15
1436 3 24.15 3.449999999999999 31.05
1437 5 24.15 6.899999999999999 17.25000000000001
1438 2 24.15 6.899999999999999 24.15000000000001
1439 3 24.15 10.35 17.25
1440 1 24.15 10.35 24.15000000000001
1441 3 24.15 13.8 0
1442 3 24.15 13.8 3.449999999999999
1443 1 24.15 13.8 13.8
1444 5 24.15 13.8 20.7
1445 3 24.15 13.8 24.15
1446 1 24.15 13.8 31.05
1447 4 24.15 17.25 3.449999999999999
1448 4 24.15 17.25 6.899999999999999
1449 5 24.15 17.25 10.35
1450 4 24.15 17.25 20.7
1451 2 24.15 17.25 24.15000000000001
1452 3 24.15 17.25 27.59999999999999
1453 3 24.15 17.25 31.05
1454 2 24.15 20.7 13.8
1455 1 24.15 20.7 17.25
1456 4 24.15 20.7 24.15
1457 2 24.15 20.7 31.05
1458 5 24.15 24.15 0
1459 3 24.15 24.15 3.449999999999999
1460 3 24.15 24.15 6.899999999999999
1461 5 24.15 24.15 10.35
1462 4 24.15 24.15 13.8
1463 2 24.15 24.15 17.25
1464 5 24.15 24.15 20.7
1465 1 24.15 24.15 24.15
1466 5 24.15 24.15 27.6
1467 4 24.15 24.15 31.05
1468 5 24.15 27.6 17.25
1469 2 24.15 27.6 24.15000000000001
1470 1 24.15 31.05 0
1471 5 24.15 31.05 3.449999999999999
1472 2 24.15 31.05 13.8
1473 2 24.15 31.05 17.25000000000001
1474 3 24.15 31.05 20.7
1475 2 24.15 31.05 24.15
1476 2 24.15 31.05 31.05
1477 4 24.15000000000001 13.8 17.25
1478 1 24.15000000000001 17.25 0
1479 1 24.15000000000001 17.25 13.8
1480 5 24.15000000000001 17.25 17.25
1481 3 24.15000000000001 34.5 17.25
1482 3 25.875 1.725 1.725
1483 5 25.875 1.725 12.075
1484 3 25.875 1.725 22.425
1485 2 25.875 1.725 29.325
1486 4 25.875 1.725000000000001 5.175000000000001
1487 2 25.875 1.725000000000001 8.625
1488 3 25.875 1.725000000000001 18.975
1489 1 25.875 1.725000000000001 25.875
1490 4 25.875 5.174999999999999 1.725
1491 2 25.875 5.174999999999999 12.075
1492 2 25.875 5.174999999999999 15.525
1493 2 25.875 5.174999999999999 22.425
1494 3 25.875 5.174999999999999 29.325
1495 4 25.875 5.174999999999999 32.77500000000001
1496 2 25.875 5.175000000000001 5.175000000000002
1497 5 25.875 5.175000000000001 8.624999999999998
1498 1 25.875 5.175000000000001 18.975
1499 4 25.875 5.175000000000001 25.875
1500 1 25.875 8.624999999999998 15.52500000000001
1501 4 25.875 8.624999999999998 22.425
1502 1 25.875 8.625 1.725000000000001
1503 1 25.875 8.625 5.175000000000001
1504 2 25.875 8.625 8.625
1505 2 25.875 8.625 12.075
1506 2 25.875 8.625 18.975
1507 2 25.875 8.625 25.875
1508 3 25.875 8.625 29.325
1509 4 25.875 8.625 32.77500000000001
1510 5 25.875 12.075 1.725000000000001
1511 5 25.875 12.075 5.174999999999997
1512 3 25.875 12.075 12.075
1513 3 25.875 12.075 18.975
1514 4 25.875 12.075 8.625
1515 1 25.875 12.075 25.875
1516 1 25.875 12.075 29.325
1517 3 25.875 15.525 5.174999999999997
1518 4 25.875 15.525 8.625
1519 2 25.875 15.52500000000001 25.875
1520 4 25.875 18.975 1.725000000000001
1521 2 25.875 18.975 5.175000000000001
1522 3 25.875 18.975 8.625
1523 2 25.875 18.975 12.075
1524 1 25.875 18.975 18.975
1525 1 25.875 18.975 22.42500000000001
1526 3 25.875 18.975 25.875
1527 2 25.875 18.975 29.325
1528 3 25.875 22.425 1.724999999999998
1529 1 25.875 22.425 5.175000000000001
1530 4 25.875 22.425 8.624999999999996
1531 1 25.875 22.425 18.975
1532 1 25.875 22.425 25.875
1533 5 25.875 25.875 1.725000000000001
1534 1 25.875 25.875 5.175000000000001
1535 1 25.875 25.875 8.625
1536 5 25.875 25.875 12.075
1537 4 25.875 25.875 15.52500000000001
1538 4 25.875 25.875 18.975
1539 3 25.875 25.875 22.425
1540 5 25.875 25.875 25.875
1541 3 25.875 25.875 29.325
1542 2 25.875 25.875 32.77500000000001
1543 1 25.875 29.325 1.725000000000001
1544 1 25.875 29.325 5.174999999999997
1545 3 25.875 29.325 8.625
1546 5 25.875 29.325 12.075
1547 4 25.875 29.325 18.975
1548 4 25.875 29.325 25.875
1549 1 25.875 29.325 29.325
1550 4 25.875 32.77500000000001 5.174999999999997
1551 2 25.875 32.77500000000001 8.625
1552 4 25.875 32.77500000000001 25.875
1553 4 25.875 1.724999999999998 15.525
1554 5 25.875 1.724999999999998 32.77500000000001
1555 5 25.875 12.075 15.525
1556 2 25.875 12.075 22.425
1557 2 25.875 12.075 32.775
1558 2 25.875 15.525 1.724999999999998
1559 4 25.875 15.525 12.075
1560 1 25.875 15.525 18.97499999999999
1561 4 25.875 15.525 22.425
1562 2 25.875 15.525 29.325
1563 2 25.875 15.525 32.77500000000001
1564 3 25.875 18.975 15.525
1565 3 25.875 18.975 32.77500000000001
1566 4 25.875 22.425 12.075
1567 4 25.875 22.425 15.525
1568 5 25.875 22.425 22.425
1569 5 25.875 22.425 29.325
1570 2 25.875 22.425 32.77500000000001
1571 3 25.875 29.325 15.525
1572 3 25.875 29.325 22.425
1573 4 25.875 29.325 32.775
1574 2 25.875 32.77500000000001 1.724999999999998
1575 3 25.875 32.77500000000001 12.075
1576 2 25.875 32.77500000000001 15.52500000000001
1577 3 25.875 32.77500000000001 18.97499999999999
1578 1 25.875 32.77500000000001 22.425
1579 5 25.875 32.77500000000001 29.325
1580 5 25.875 32.77500000000001 32.77500000000001
1581 5 25.87500000000001 15.525 15.525
1582 2 27.6 17.25 24.15
1583 3 27.6 24.15 17.25
1584 5 27.6 24.15 24.15000000000001
1585 3 27.6 0 0
1586 3 27.6 0 3.449999999999999
1587 2 27.6 0 6.899999999999999
1588 4 27.6 0 10.35
1589 3 27.6 0 17.25
1590 2 27.6 0 20.7
1591 2 27.6 0 27.6
1592 5 27.6 1.915134717478395e-15 24.15
1593 5 27.6 3.449999999999998 13.8
1594 3 27.6 3.449999999999998 31.05
1595 5 27.6 3.449999999999999 0
1596 1 27.6 3.449999999999999 10.35
1597 4 27.6 3.449999999999999 20.7
1598 3 27.6 3.449999999999999 27.6
1599 1 27.6 3.450000000000001 3.450000000000001
1600 2 27.6 3.450000000000001 6.9
1601 4 27.6 3.450000000000001 17.25
1602 2 27.6 3.450000000000001 24.15
1603 1 27.6 6.899999999999999 0
1604 5 27.6 6.899999999999999 10.35
1605 1 27.6 6.899999999999999 13.8
1606 5 27.6 6.899999999999999 20.7
1607 2 27.6 6.899999999999999 27.6
1608 3 27.6 6.899999999999999 31.05
1609 2 27.6 6.9 3.450000000000003
1610 1 27.6 6.9 6.899999999999999
1611 4 27.6 6.9 17.25
1612 2 27.6 6.9 24.15
1613 4 27.6 10.35 13.8
1614 3 27.6 10.35 20.7
1615 1 27.6 10.35 0
1616 3 27.6 10.35 3.449999999999999
1617 2 27.6 10.35 6.899999999999999
1618 4 27.6 10.35 10.35
1619 2 27.6 10.35 17.25
1620 2 27.6 10.35 24.15
1621 1 27.6 10.35 27.6
1622 1 27.6 10.35 31.05
1623 3 27.6 13.8 0
1624 2 27.6 13.8 3.449999999999995
1625 1 27.6 13.8 10.35
1626 4 27.6 13.8 17.25
1627 2 27.6 13.8 6.899999999999999
1628 5 27.6 13.8 24.15
1629 2 27.6 13.8 27.6
1630 1 27.6 17.25 13.8
1631 1 27.6 17.25 0
1632 1 27.6 17.25 3.449999999999999
1633 2 27.6 17.25 6.900000000000002
1634 2 27.6 17.25 10.35
1635 4 27.6 17.25 17.25
1636 1 27.6 17.25 20.7
1637 1 27.6 17.25 27.6
1638 3 27.6 17.25 31.05000000000001
1639 4 27.6 20.7 0
1640 4 27.6 20.7 3.449999999999999
1641 2 27.6 20.7 6.899999999999999
1642 3 27.6 20.7 10.35
1643 2 27.6 20.7 17.25
1644 2 27.6 20.7 20.70000000000001
1645 5 27.6 20.7 24.15
1646 2 27.6 20.7 27.6
1647 4 27.6 24.15 0
1648 1 27.6 24.15 3.450000000000003
1649 5 27.6 24.15 6.899999999999999
1650 2 27.6 24.15 10.35
1651 4 27.6 24.15 13.8
1652 5 27.6 24.15 20.7
1653 4 27.6 24.15 27.6
1654 5 27.6 24.15 31.05
1655 5 27.6 27.6 0
1656 4 27.6 27.6 3.449999999999999
1657 3 27.6 27.6 6.899999999999999
1658 2 27.6 27.6 10.35
1659 5 27.6 27.6 13.8
1660 5 27.6 27.6 17.25
1661 5 27.6 27.6 20.7
1662 1 27.6 27.6 24.15
1663 4 27.6 27.6 27.6
1664 4 27.6 27.6 31.05
1665 1 27.6 31.05 0
1666 5 27.6 31.05 3.449999999999995
1667 4 27.6 31.05 6.899999999999999
1668 5 27.6 31.05 10.35
1669 4 27.6 31.05 17.25
1670 3 27.6 31.05 24.15
1671 2 27.6 31.05 27.6
1672 5 27.6 34.5 13.8
1673 5 27.6 34.5 31.05
1674 5 27.6 13.8 13.8
1675 1 27.6 13.8 20.7
1676 2 27.6 13.8 31.05
1677 1 27.6 20.7 13.8
1678 4 27.6 20.7 31.05
1679 5 27.6 31.05 13.8
1680 1 27.6 31.05 20.7
1681 4 27.6 31.05 31.05
1682 2 29.325 1.725000000000001 22.425
1683 1 29.325 5.175000000000001 1.725000000000001
1684 3 29.325 5.175000000000001 5.175000000000001
1685 4 29.325 5.175000000000001 15.525
1686 5 29.325 5.175000000000001 22.425
1687 5 29.325 5.175000000000001 32.77500000000001
1688 4 29.325 8.625000000000004 32.775
1689 3 29.325 15.525 5.175000000000001
1690 1 29.325 15.525 22.425
1691 1 29.325 15.525 25.875
1692 2 29.325 15.525 32.77500000000001
1693 3 29.325 18.975 22.425
1694 2 29.325 22.425 1.725000000000001
1695 3 29.325 22.425 5.175000000000001
1696 2 29.325 22.425 15.52500000000001
1697 5 29.325 22.425 18.97500000000001
1698 1 29.325 22.425 22.425
1699 2 29.325 22.425 25.875
1700 5 29.325 22.425 32.77500000000001
1701 3 29.325 25.875 15.525
1702 5 29.325 25.875 22.425
1703 4 29.325 25.875 32.775
1704 3 29.325 32.77500000000001 5.175000000000001
1705 4 29.325 32.77500000000001 8.625000000000004
1706 3 29.325 32.77500000000001 15.525
1707 1 29.325 32.77500000000001 22.425
1708 3 29.325 32.77500000000001 25.875
1709 5 29.325 32.77500000000001 32.77500000000001
1710 3 29.325 1.724999999999998 12.075
1711 5 29.325 1.724999999999998 29.325
1712 2 29.325 1.725 1.725
1713 4 29.325 1.725 5.174999999999999
1714 3 29.325 1.725 8.625000000000002
1715 1 29.325 1.725 15.525
1716 2 29.325 1.725 18.975
1717 2 29.325 1.725 25.87500000000001
1718 4 29.325 1.725 32.775
1719 2 29.325 5.174999999999997 12.075
1720 5 29.325 5.174999999999997 29.325
1721 2 29.325 5.174999999999999 8.625
1722 2 29.325 5.174999999999999 18.975
1723 1 29.325 5.174999999999999 25.875
1724 2 29.325 8.625 8.625
1725 3 29.325 8.625 12.075
1726 1 29.325 8.625 18.975
1727 1 29.325 8.625 25.875
1728 3 29.325 8.625 29.325
1729 2 29.325 8.625000000000002 1.725000000000001
1730 3 29.325 8.625000000000002 5.174999999999997
1731 1 29.325 8.625000000000002 15.525
1732 5 29.325 8.625000000000002 22.425
1733 3 29.325 12.075 12.075
1734 1 29.325 12.075 18.975
1735 5 29.325 12.075 1.724999999999998
1736 4 29.325 12.075 5.174999999999997
1737 3 29.325 12.075 8.625
1738 1 29.325 12.075 15.525
1739 5 29.325 12.075 22.425
1740 1 29.325 12.075 25.875
1741 3 29.325 12.075 29.325
1742 5 29.325 12.075 32.775
1743 4 29.325 15.525 12.075
1744 4 29.325 15.525 18.975
1745 3 29.325 15.525 29.325
1746 3 29.325 15.525 1.724999999999998
1747 4 29.325 15.525 8.625000000000004
1748 5 29.325 15.525 15.525
1749 2 29.325 18.975 1.724999999999998
1750 2 29.325 18.975 5.175000000000001
1751 3 29.325 18.975 8.625
1752 1 29.325 18.975 12.075
1753 2 29.325 18.975 15.525
1754 3 29.325 18.975 18.975
1755 3 29.325 18.975 25.875
1756 3 29.325 18.975 29.32500000000001
1757 1 29.325 18.975 32.77499999999999
1758 1 29.325 22.425 8.625
1759 2 29.325 22.425 12.075
1760 3 29.325 22.425 29.325
1761 4 29.325 25.875 1.725000000000001
1762 1 29.325 25.875 5.174999999999997
1763 3 29.325 25.875 8.625
1764 2 29.325 25.875 12.075
1765 2 29.325 25.875 18.975
1766 3 29.325 25.875 25.875
1767 2 29.325 25.875 29.325
1768 2 29.325 29.325 1.724999999999998
1769 1 29.325 29.325 5.174999999999997
1770 1 29.325 29.325 8.625
1771 5 29.325 29.325 12.075
1772 5 29.325 29.325 15.525
1773 3 29.325 29.325 18.975
1774 2 29.325 29.325 22.425
1775 5 29.325 29.325 25.875
1776 4 29.325 29.325 29.325
1777 2 29.325 29.325 32.775
1778 3 29.325 32.775 1.724999999999998
1779 1 29.325 32.775 12.075
1780 2 29.325 32.775 18.975
1781 5 29.325 32.775 29.325
1782 5 31.05 1.915134717478395e-15 20.7
1783 3 31.05 3.450000000000001 20.7
1784 4 31.05 20.7 0
1785 1 31.05 20.7 3.450000000000003
1786 4 31.05 20.7 20.7
1787 4 31.05 0 0
1788 5 31.05 0 3.450000000000001
1789 2 31.05 0 13.8
1790 3 31.05 0 24.15000000000001
1791 3 31.05 0 31.05
1792 3 31.05 3.449999999999999 0
1793 5 31.05 3.449999999999999 3.449999999999999
1794 4 31.05 3.449999999999999 6.900000000000002
1795 2 31.05 3.449999999999999 13.8
1796 4 31.05 3.449999999999999 17.25
1797 5 31.05 3.449999999999999 24.15000000000001
1798 5 31.05 3.449999999999999 31.05
1799 1 31.05 6.900000000000002 0
1800 5 31.05 6.900000000000002 3.449999999999999
1801 5 31.05 6.900000000000002 13.8
1802 4 31.05 6.900000000000002 20.7
1803 5 31.05 6.900000000000002 31.05
1804 5 31.05 10.35 31.05
1805 3 31.05 13.8 0
1806 4 31.05 13.8 3.449999999999999
1807 2 31.05 13.8 6.900000000000002
1808 5 31.05 13.8 13.8
1809 1 31.05 13.8 20.7
1810 2 31.05 13.8 24.15
1811 1 31.05 13.8 27.6
1812 4 31.05 13.8 31.05
1813 3 31.05 17.25 3.449999999999999
1814 4 31.05 17.25 20.7
1815 1 31.05 17.25 24.15
1816 1 31.05 17.25 31.05
1817 5 31.05 20.7 6.900000000000002
1818 2 31.05 20.7 13.8
1819 5 31.05 20.7 17.25
1820 5 31.05 20.7 24.15000000000001
1821 1 31.05 20.7 27.60000000000001
1822 3 31.05 20.7 31.05
1823 1 31.05 24.15 0
1824 1 31.05 24.15 3.449999999999999
1825 3 31.05 24.15 13.8
1826 4 31.05 24.15 17.25000000000001
1827 4 31.05 24.15 20.7
1828 5 31.05 24.15 24.15
1829 2 31.05 24.15 31.05
1830 1 31.05 27.6 13.8
1831 4 31.05 27.6 20.7
1832 3 31.05 27.6 31.05
1833 3 31.05 31.05 0
1834 3 31.05 31.05 3.449999999999999
1835 4 31.05 31.05 6.900000000000002
1836 4 31.05 31.05 10.35
1837 2 31.05 31.05 13.8
1838 2 31.05 31.05 17.25
1839 4 31.05 31.05 20.7
1840 5 31.05 31.05 24.15
1841 3 31.05 31.05 27.6
1842 1 31.05 31.05 31.05
1843 3 31.05 3.449999999999998 10.35
1844 2 31.05 3.449999999999998 27.6
1845 1 31.05 6.899999999999999 10.35
1846 5 31.05 6.899999999999999 27.6
1847 2 31.05 6.9 6.899999999999999
1848 3 31.05 6.9 17.25
1849 3 31.05 6.9 24.15
1850 1 31.05 10.35 6.899999999999999
1851 2 31.05 10.35 10.35
1852 4 31.05 10.35 17.25
1853 1 31.05 10.35 24.15
1854 5 31.05 10.35 27.6
1855 5 31.05 10.35 0
1856 1 31.05 10.35 3.449999999999995
1857 4 31.05 10.35 13.8
1858 5 31.05 10.35 20.7
1859 2 31.05 13.8 10.35
1860 5 31.05 13.8 17.25
1861 1 31.05 17.25 6.900000000000002
1862 2 31.05 17.25 10.35
1863 2 31.05 17.25 13.8
1864 5 31.05 17.25 17.25
1865 1 31.05 17.25 27.6
1866 5 31.05 17.25 34.49999999999999
1867 1 31.05 20.7 10.35
1868 4 31.05 24.15 6.899999999999999
1869 5 31.05 24.15 10.35
1870 3 31.05 24.15 27.6
1871 4 31.05 27.6 0
1872 5 31.05 27.6 3.449999999999995
1873 5 31.05 27.6 6.899999999999999
1874 2 31.05 27.6 10.35
1875 1 31.05 27.6 17.25
1876 4 31.05 27.6 24.15
1877 4 31.05 27.6 27.6
1878 4 31.05 34.5 6.9
1879 4 31.05 34.5 10.35
1880 5 31.05 34.5 17.25
1881 1 31.05 34.5 27.6
1882 5 32.775 1.725 1.725000000000001
1883 1 32.775 1.725 12.075
1884 2 32.775 1.725 22.425
1885 2 32.775 1.725 29.325
1886 2 32.775 1.725000000000001 18.975
1887 5 32.775 5.175000000000002 18.975
1888 5 32.775 12.075 1.724999999999998
1889 5 32.775 12.075 12.075
1890 2 32.775 12.075 18.975
1891 1 32.775 12.075 29.325
1892 4 32.775 18.975 1.725000000000001
1893 2 32.775 18.975 5.175000000000004
1894 2 32.775 18.975 12.075
1895 2 32.775 18.975 18.975
1896 3 32.775 18.975 22.425
1897 4 32.775 18.975 29.325
1898 2 32.775 22.425 1.725000000000001
1899 5 32.775 22.425 18.975
1900 5 32.775 29.325 1.724999999999998
1901 1 32.775 29.325 12.075
1902 3 32.775 29.325 18.975
1903 3 32.775 29.325 29.325
1904 1 32.77500000000001 1.724999999999998 5.175000000000001
1905 4 32.77500000000001 1.724999999999998 8.625000000000004
1906 2 32.77500000000001 1.724999999999998 15.525
1907 2 32.77500000000001 1.724999999999998 25.875
1908 3 32.77500000000001 1.724999999999998 32.77500000000001
1909 1 32.77500000000001 5.175000000000001 1.724999999999998
1910 5 32.77500000000001 5.175000000000001 5.175000000000001
1911 3 32.77500000000001 5.175000000000001 12.075
1912 3 32.77500000000001 5.175000000000001 15.525
1913 2 32.77500000000001 5.175000000000001 22.425
1914 1 32.77500000000001 5.175000000000001 29.325
1915 2 32.77500000000001 5.175000000000001 32.775
1916 5 32.77500000000001 8.625000000000004 1.724999999999998
1917 1 32.77500000000001 8.625000000000004 12.075
1918 1 32.77500000000001 8.625000000000004 18.97499999999999
1919 1 32.77500000000001 8.625000000000004 29.325
1920 5 32.77500000000001 8.625000000000004 32.77500000000001
1921 3 32.77500000000001 12.075 5.175000000000001
1922 1 32.77500000000001 12.075 8.625000000000004
1923 3 32.77500000000001 12.075 15.525
1924 3 32.77500000000001 12.075 22.425
1925 2 32.77500000000001 12.075 25.875
1926 1 32.77500000000001 12.075 32.77500000000001
1927 2 32.77500000000001 15.525 1.724999999999998
1928 4 32.77500000000001 15.525 5.175000000000001
1929 2 32.77500000000001 15.525 12.075
1930 4 32.77500000000001 15.525 18.975
1931 3 32.77500000000001 15.525 22.425
1932 4 32.77500000000001 15.525 25.875
1933 3 32.77500000000001 15.525 29.325
1934 4 32.77500000000001 15.525 32.77500000000001
1935 1 32.77500000000001 18.975 8.625
1936 3 32.77500000000001 18.975 15.52500000000001
1937 1 32.77500000000001 18.975 25.875
1938 5 32.77500000000001 18.975 32.77500000000001
1939 4 32.77500000000001 22.425 5.175000000000001
1940 2 32.77500000000001 22.425 12.075
1941 2 32.77500000000001 22.425 15.525
1942 5 32.77500000000001 22.425 22.425
1943 5 32.77500000000001 22.425 25.87500000000001
1944 4 32.77500000000001 22.425 29.325
1945 1 32.77500000000001 22.425 32.775
1946 3 32.77500000000001 25.875 1.724999999999998
1947 4 32.77500000000001 25.875 12.075
1948 3 32.77500000000001 25.875 15.52500000000001
1949 2 32.77500000000001 25.875 18.97499999999999
1950 5 32.77500000000001 25.875 22.425
1951 2 32.77500000000001 25.875 29.325
1952 4 32.77500000000001 25.875 32.77500000000001
1953 3 32.77500000000001 29.325 5.175000000000001
1954 3 32.77500000000001 29.325 8.625000000000004
1955 2 32.77500000000001 29.325 15.525
1956 1 32.77500000000001 29.325 22.425
1957 4 32.77500000000001 29.325 25.875
1958 1 32.77500000000001 29.325 32.77500000000001
1959 4 32.77500000000001 32.77500000000001 1.724999999999998
1960 1 32.77500000000001 32.77500000000001 5.175000000000001
1961 5 32.77500000000001 32.77500000000001 8.625000000000004
1962 3 32.77500000000001 32.77500000000001 12.075
1963 1 32.77500000000001 32.77500000000001 15.525
1964 1 32.77500000000001 32.77500000000001 18.975
1965 4 32.77500000000001 32.77500000000001 22.425
1966 3 32.77500000000001 32.77500000000001 25.875
1967 5 32.77500000000001 32.77500000000001 29.325
1968 1 32.77500000000001 32.77500000000001 32.77500000000001
1969 5 32.77500000000001 5.174999999999999 8.625
1970 2 32.77500000000001 5.174999999999999 25.875
1971 3 32.77500000000001 8.625 8.625
1972 1 32.77500000000001 8.625 25.875
1973 2 32.77500000000001 8.625000000000002 5.174999999999997
1974 5 32.77500000000001 8.625000000000002 15.525
1975 4 32.77500000000001 8.625000000000002 22.425
1976 3 32.77500000000001 15.525 8.625000000000004
1977 5 32.77500000000001 15.525 15.525
1978 3 32.77500000000001 22.425 8.625
1979 1 32.77500000000001 25.875 5.174999999999997
1980 1 32.77500000000001 25.875 8.625
1981 1 32.77500000000001 25.875 25.875
1982 3 34.5 3.450000000000001 6.9
1983 5 34.5 3.450000000000002 17.25
1984 3 34.5 6.9 3.45
1985 4 34.5 6.900000000000001 13.8
1986 2 34.5 6.900000000000001 17.25
1987 1 34.5 6.900000000000001 31.05
1988 2 34.5 10.35 31.05
1989 4 34.5 13.8 6.9
1990 4 34.5 13.8 27.6
1991 4 34.5 17.25 3.450000000000001
1992 5 34.5 17.25 24.15000000000001
1993 3 34.5 17.25 31.05
1994 2 34.5 24.15000000000001 17.25
1995 4 34.5 27.6 13.8
1996 4 34.5 27.6 31.05
1997 1 34.5 31.05 6.9
1998 3 34.5 31.05 10.35
1999 1 34.5 31.05 17.25
2000 5 34.5 31.05 27.6
