# BCC equiatomic HfMoTaTiZr; profile=compact; x=[111]; seed=20264861

1980 atoms
5 atom types

0.0 32.86566407361945 xlo xhi
0.0 29.27422074112307 ylo yhi
0.0 42.25369806300982 zlo zhi
0 0 0 xy xz yz

Masses

1 178.49 # Hf
2 95.95 # Mo
3 180.94788 # Ta
4 47.867 # Ti
5 91.224 # Zr

Atoms # atomic

1 5 0 0 0
2 3 0 0 8.450739612601964
3 1 0 0 16.90147922520393
4 1 0 0 25.3522188378059
5 3 0 0 33.80295845040786
6 1 0 2.439518395093589 38.02832825670883
7 2 0 2.439518395093589 12.67610941890295
8 1 0 2.439518395093589 21.12684903150491
9 5 0 4.879036790187177 33.80295845040786
10 5 0 4.879036790187178 25.3522188378059
11 1 0 4.879036790187179 16.90147922520393
12 3 0 7.318555185280768 21.12684903150491
13 2 0 7.318555185280768 38.02832825670884
14 1 0 9.758073580374358 33.80295845040786
15 2 1.140256780441504e-16 2.439518395093589 4.225369806300982
16 4 2.280513560883008e-16 4.879036790187178 8.450739612601964
17 3 3.420770341324512e-16 4.879036790187178 0
18 2 4.561027121766016e-16 7.318555185280768 4.225369806300982
19 5 4.561027121766016e-16 7.318555185280768 12.67610941890295
20 1 4.561027121766016e-16 9.758073580374356 16.90147922520393
21 2 6.841540682649024e-16 9.758073580374356 0
22 5 6.841540682649024e-16 9.758073580374356 8.450739612601964
23 2 9.122054243532032e-16 7.318555185280767 29.57758864410687
24 3 9.122054243532032e-16 9.758073580374356 25.35221883780589
25 2 9.122054243532032e-16 12.19759197546795 4.225369806300982
26 5 9.122054243532032e-16 12.19759197546795 12.67610941890295
27 1 9.122054243532032e-16 12.19759197546795 21.12684903150491
28 3 9.122054243532032e-16 12.19759197546795 29.57758864410687
29 1 9.122054243532032e-16 14.63711037056153 16.90147922520393
30 5 9.122054243532032e-16 14.63711037056153 33.80295845040786
31 1 9.122054243532032e-16 14.63711037056154 8.450739612601964
32 3 9.122054243532032e-16 14.63711037056154 25.3522188378059
33 2 9.122054243532032e-16 17.07662876565512 29.57758864410687
34 3 9.122054243532032e-16 17.07662876565513 21.12684903150491
35 4 9.122054243532032e-16 19.51614716074871 25.3522188378059
36 5 9.122054243532032e-16 19.51614716074871 33.80295845040786
37 2 9.122054243532032e-16 21.9556655558423 21.12684903150491
38 2 9.122054243532032e-16 21.9556655558423 29.57758864410687
39 3 9.122054243532032e-16 24.39518395093589 33.80295845040786
40 4 9.122054243532032e-16 26.83470234602948 29.57758864410687
41 1 1.368308136529805e-15 14.63711037056154 0
42 2 1.368308136529805e-15 17.07662876565512 4.225369806300982
43 3 1.368308136529805e-15 17.07662876565512 12.67610941890295
44 5 1.368308136529805e-15 19.51614716074871 0
45 5 1.368308136529805e-15 19.51614716074871 16.90147922520393
46 1 1.824410848706406e-15 12.19759197546795 38.02832825670883
47 4 1.824410848706406e-15 17.07662876565512 38.02832825670883
48 5 1.824410848706406e-15 19.51614716074871 8.450739612601964
49 4 1.824410848706406e-15 21.9556655558423 4.225369806300982
50 5 1.824410848706406e-15 21.9556655558423 12.67610941890295
51 2 1.824410848706406e-15 21.9556655558423 38.02832825670883
52 4 1.824410848706406e-15 24.39518395093589 0
53 1 1.824410848706406e-15 24.39518395093589 8.450739612601964
54 4 1.824410848706406e-15 24.39518395093589 16.90147922520393
55 5 1.824410848706406e-15 24.39518395093589 25.3522188378059
56 5 1.824410848706406e-15 26.83470234602948 12.67610941890295
57 2 1.824410848706406e-15 26.83470234602948 4.225369806300983
58 5 1.824410848706406e-15 26.83470234602948 21.12684903150491
59 4 3.648821697412813e-15 26.83470234602948 38.02832825670883
60 4 0.9959292143521036 2.439518395093589 26.76067543990622
61 3 0.9959292143521036 2.439518395093589 35.21141505250818
62 4 0.9959292143521036 7.318555185280768 35.21141505250819
63 5 0.9959292143521046 0 5.633826408401309
64 3 0.9959292143521046 0 14.08456602100328
65 2 0.9959292143521046 0 22.53530563360524
66 5 0.9959292143521046 0 30.9860452462072
67 3 0.9959292143521046 2.439518395093589 9.859196214702292
68 2 0.9959292143521046 2.439518395093589 18.30993582730426
69 1 0.9959292143521046 4.879036790187177 30.9860452462072
70 4 0.9959292143521046 4.879036790187178 22.53530563360524
71 4 0.9959292143521046 4.879036790187179 14.08456602100328
72 5 0.9959292143521046 7.318555185280768 18.30993582730426
73 2 0.9959292143521046 9.758073580374358 30.9860452462072
74 3 0.9959292143521047 2.439518395093589 1.408456602100327
75 3 0.9959292143521048 4.879036790187178 5.633826408401309
76 2 0.995929214352105 7.318555185280768 1.408456602100327
77 4 0.995929214352105 7.318555185280768 9.859196214702292
78 4 0.995929214352105 9.758073580374356 14.08456602100328
79 1 0.9959292143521052 9.758073580374356 5.633826408401311
80 1 0.9959292143521055 0 39.43678485880917
81 3 0.9959292143521055 4.879036790187179 39.43678485880917
82 4 0.9959292143521055 7.318555185280767 26.76067543990622
83 5 0.9959292143521055 9.758073580374354 39.43678485880917
84 3 0.9959292143521055 9.758073580374356 22.53530563360524
85 2 0.9959292143521055 12.19759197546795 1.408456602100328
86 2 0.9959292143521055 12.19759197546795 9.859196214702292
87 3 0.9959292143521055 12.19759197546795 18.30993582730426
88 3 0.9959292143521055 12.19759197546795 35.21141505250818
89 1 0.9959292143521055 12.19759197546795 26.76067543990622
90 3 0.9959292143521055 14.63711037056153 14.08456602100328
91 2 0.9959292143521055 14.63711037056153 30.9860452462072
92 3 0.9959292143521055 14.63711037056154 5.633826408401309
93 1 0.9959292143521055 14.63711037056154 22.53530563360524
94 4 0.9959292143521055 14.63711037056154 39.43678485880917
95 1 0.9959292143521055 17.07662876565512 26.76067543990622
96 2 0.9959292143521055 17.07662876565512 35.21141505250818
97 1 0.9959292143521055 17.07662876565513 18.30993582730426
98 2 0.9959292143521055 19.51614716074871 22.53530563360524
99 2 0.9959292143521055 19.51614716074871 30.9860452462072
100 1 0.9959292143521055 19.51614716074871 39.43678485880917
101 2 0.9959292143521055 21.9556655558423 18.30993582730426
102 1 0.9959292143521055 21.9556655558423 26.76067543990622
103 3 0.9959292143521055 21.9556655558423 35.21141505250818
104 1 0.9959292143521055 24.39518395093589 30.9860452462072
105 5 0.9959292143521055 26.83470234602948 26.76067543990622
106 4 0.9959292143521059 17.07662876565512 1.408456602100327
107 1 0.9959292143521059 17.07662876565512 9.859196214702292
108 3 0.9959292143521059 19.51614716074871 14.08456602100328
109 2 0.9959292143521064 19.51614716074871 5.633826408401308
110 1 0.9959292143521064 21.9556655558423 1.408456602100327
111 5 0.9959292143521064 21.9556655558423 9.859196214702292
112 5 0.9959292143521064 24.39518395093589 5.633826408401311
113 4 0.9959292143521064 24.39518395093589 14.08456602100328
114 1 0.9959292143521064 24.39518395093589 22.53530563360524
115 1 0.9959292143521064 26.83470234602948 9.859196214702292
116 4 0.9959292143521064 26.83470234602948 1.408456602100328
117 2 0.9959292143521064 26.83470234602948 18.30993582730426
118 4 0.9959292143521072 24.39518395093589 39.43678485880917
119 3 0.9959292143521072 26.83470234602948 35.21141505250818
120 1 1.991858428704208 2.439518395093589 23.94376223570556
121 5 1.991858428704208 2.439518395093589 32.39450184830753
122 5 1.991858428704208 7.318555185280768 32.39450184830753
123 1 1.991858428704209 0 2.816913204200655
124 2 1.991858428704209 0 11.26765281680262
125 4 1.991858428704209 0 19.71839242940458
126 5 1.991858428704209 0 28.16913204200655
127 3 1.991858428704209 0 36.61987165460852
128 3 1.991858428704209 2.439518395093589 7.042283010501638
129 4 1.991858428704209 2.439518395093589 15.4930226231036
130 4 1.991858428704209 4.879036790187177 28.16913204200655
131 4 1.991858428704209 4.879036790187178 19.71839242940458
132 1 1.991858428704209 4.879036790187179 11.26765281680262
133 3 1.991858428704209 4.879036790187179 36.61987165460852
134 1 1.991858428704209 7.318555185280768 15.4930226231036
135 3 1.991858428704209 9.758073580374354 36.61987165460852
136 4 1.991858428704209 9.758073580374358 28.16913204200655
137 1 1.991858428704209 14.63711037056154 36.61987165460852
138 2 1.991858428704209 19.51614716074871 36.61987165460852
139 3 1.991858428704209 4.879036790187178 2.816913204200655
140 5 1.99185842870421 7.318555185280768 7.042283010501638
141 4 1.99185842870421 9.758073580374356 11.26765281680262
142 3 1.99185842870421 9.758073580374356 2.816913204200655
143 4 1.99185842870421 7.318555185280767 23.94376223570556
144 1 1.99185842870421 9.758073580374356 19.71839242940458
145 1 1.99185842870421 12.19759197546795 7.042283010501638
146 3 1.99185842870421 12.19759197546795 15.4930226231036
147 5 1.99185842870421 12.19759197546795 32.39450184830753
148 1 1.99185842870421 12.19759197546795 23.94376223570556
149 2 1.99185842870421 14.63711037056153 11.26765281680262
150 5 1.99185842870421 14.63711037056153 28.16913204200655
151 5 1.99185842870421 14.63711037056154 2.816913204200655
152 5 1.99185842870421 14.63711037056154 19.71839242940458
153 2 1.99185842870421 17.07662876565512 23.94376223570556
154 1 1.99185842870421 17.07662876565512 32.39450184830753
155 4 1.99185842870421 17.07662876565513 15.4930226231036
156 5 1.99185842870421 19.51614716074871 19.71839242940458
157 5 1.99185842870421 19.51614716074871 28.16913204200655
158 3 1.99185842870421 21.9556655558423 15.4930226231036
159 2 1.99185842870421 21.9556655558423 23.94376223570556
160 1 1.99185842870421 21.9556655558423 32.39450184830753
161 1 1.99185842870421 24.39518395093589 28.16913204200655
162 2 1.99185842870421 26.83470234602948 23.94376223570556
163 5 1.99185842870421 17.07662876565512 7.042283010501636
164 2 1.99185842870421 19.51614716074871 11.26765281680262
165 4 1.991858428704211 2.43951839509359 40.84524146090949
166 5 1.991858428704211 7.318555185280766 40.84524146090949
167 3 1.991858428704211 12.19759197546795 40.84524146090949
168 5 1.991858428704211 17.07662876565513 40.84524146090949
169 2 1.991858428704211 19.51614716074871 2.816913204200654
170 5 1.991858428704211 21.9556655558423 40.84524146090949
171 3 1.991858428704211 21.9556655558423 7.042283010501638
172 1 1.991858428704211 24.39518395093589 2.816913204200655
173 4 1.991858428704211 24.39518395093589 11.26765281680262
174 3 1.991858428704211 24.39518395093589 19.71839242940458
175 1 1.991858428704211 24.39518395093589 36.61987165460852
176 5 1.991858428704211 26.83470234602948 7.042283010501638
177 3 1.991858428704211 26.83470234602948 15.4930226231036
178 2 1.991858428704211 26.83470234602948 40.84524146090949
179 4 1.991858428704212 26.83470234602948 32.39450184830753
180 4 2.987787643056313 2.439518395093589 21.12684903150491
181 3 2.987787643056313 2.439518395093589 29.57758864410687
182 3 2.987787643056313 7.318555185280768 29.57758864410688
183 4 2.987787643056314 0 0
184 5 2.987787643056314 0 8.450739612601964
185 3 2.987787643056314 0 16.90147922520393
186 2 2.987787643056314 0 25.35221883780589
187 5 2.987787643056314 0 33.80295845040786
188 5 2.987787643056314 2.439518395093589 4.225369806300982
189 2 2.987787643056314 2.439518395093589 12.67610941890295
190 3 2.987787643056314 4.879036790187177 25.35221883780589
191 3 2.987787643056314 4.879036790187178 0
192 4 2.987787643056314 4.879036790187178 16.90147922520393
193 4 2.987787643056314 4.879036790187179 8.450739612601964
194 5 2.987787643056314 4.879036790187179 33.80295845040786
195 3 2.987787643056314 7.318555185280768 12.67610941890295
196 2 2.987787643056314 9.758073580374354 33.80295845040786
197 3 2.987787643056314 9.758073580374358 25.35221883780589
198 5 2.987787643056314 14.63711037056154 33.80295845040786
199 2 2.987787643056314 19.51614716074871 33.80295845040786
200 3 2.987787643056314 7.318555185280768 4.225369806300982
201 4 2.987787643056314 9.758073580374356 8.450739612601964
202 3 2.987787643056314 2.43951839509359 38.02832825670884
203 5 2.987787643056314 7.318555185280766 38.02832825670884
204 1 2.987787643056314 7.318555185280767 21.12684903150491
205 5 2.987787643056314 9.758073580374356 5.86387855813911e-16
206 4 2.987787643056314 9.758073580374356 16.90147922520393
207 5 2.987787643056314 12.19759197546795 4.225369806300982
208 4 2.987787643056314 12.19759197546795 12.67610941890295
209 1 2.987787643056314 12.19759197546795 29.57758864410687
210 3 2.987787643056314 12.19759197546795 38.02832825670884
211 1 2.987787643056314 12.19759197546795 21.12684903150491
212 2 2.987787643056314 14.63711037056153 8.450739612601964
213 4 2.987787643056314 14.63711037056153 25.35221883780589
214 2 2.987787643056314 14.63711037056154 0
215 1 2.987787643056314 14.63711037056154 16.90147922520393
216 1 2.987787643056314 17.07662876565512 21.12684903150491
217 1 2.987787643056314 17.07662876565512 29.57758864410687
218 2 2.987787643056314 17.07662876565513 12.67610941890295
219 5 2.987787643056314 17.07662876565513 38.02832825670883
220 4 2.987787643056314 19.51614716074871 16.90147922520393
221 3 2.987787643056314 19.51614716074871 25.35221883780589
222 5 2.987787643056314 21.9556655558423 12.67610941890295
223 4 2.987787643056314 21.9556655558423 38.02832825670883
224 4 2.987787643056314 21.9556655558423 21.12684903150491
225 2 2.987787643056314 21.9556655558423 29.57758864410687
226 5 2.987787643056314 24.39518395093589 25.35221883780589
227 3 2.987787643056314 26.83470234602948 21.12684903150491
228 2 2.987787643056314 26.83470234602948 38.02832825670883
229 1 2.987787643056315 17.07662876565512 4.225369806300982
230 5 2.987787643056315 19.51614716074871 8.450739612601964
231 1 2.987787643056315 19.51614716074871 42.25369806300982
232 1 2.987787643056315 21.9556655558423 4.225369806300982
233 5 2.987787643056315 24.39518395093589 5.86387855813911e-16
234 5 2.987787643056315 24.39518395093589 8.450739612601964
235 2 2.987787643056315 24.39518395093589 16.90147922520393
236 4 2.987787643056315 24.39518395093589 33.80295845040786
237 2 2.987787643056315 26.83470234602948 4.225369806300982
238 1 2.987787643056315 26.83470234602948 12.67610941890295
239 2 2.987787643056316 26.83470234602948 29.57758864410687
240 2 3.983716857408417 2.439518395093589 18.30993582730426
241 2 3.983716857408417 2.439518395093589 26.76067543990622
242 3 3.983716857408417 7.318555185280768 26.76067543990622
243 4 3.983716857408418 0 5.633826408401309
244 5 3.983716857408418 0 14.08456602100328
245 3 3.983716857408418 0 22.53530563360524
246 4 3.983716857408418 0 30.9860452462072
247 1 3.983716857408418 0 39.43678485880917
248 4 3.983716857408418 2.439518395093589 1.408456602100328
249 5 3.983716857408418 2.439518395093589 9.859196214702292
250 3 3.983716857408418 4.879036790187177 22.53530563360524
251 3 3.983716857408418 4.879036790187177 39.43678485880917
252 4 3.983716857408418 4.879036790187178 14.08456602100328
253 3 3.983716857408418 4.879036790187179 5.633826408401309
254 3 3.983716857408418 4.879036790187179 30.9860452462072
255 5 3.983716857408418 7.318555185280768 9.859196214702292
256 5 3.983716857408418 9.758073580374354 30.9860452462072
257 1 3.983716857408418 9.758073580374356 39.43678485880917
258 2 3.983716857408418 9.758073580374358 22.53530563360524
259 3 3.983716857408418 14.63711037056154 30.9860452462072
260 2 3.983716857408418 14.63711037056154 39.43678485880917
261 1 3.983716857408418 19.51614716074871 30.9860452462072
262 1 3.983716857408418 24.39518395093589 39.43678485880917
263 2 3.983716857408419 7.318555185280768 1.408456602100328
264 5 3.983716857408419 9.758073580374356 5.633826408401309
265 3 3.983716857408419 2.43951839509359 35.21141505250819
266 3 3.983716857408419 7.318555185280766 35.21141505250819
267 5 3.983716857408419 7.318555185280767 18.30993582730426
268 1 3.983716857408419 9.758073580374356 14.08456602100327
269 1 3.983716857408419 12.19759197546795 1.408456602100328
270 2 3.983716857408419 12.19759197546795 9.859196214702292
271 1 3.983716857408419 12.19759197546795 26.76067543990622
272 5 3.983716857408419 12.19759197546795 35.21141505250819
273 3 3.983716857408419 12.19759197546795 18.30993582730426
274 4 3.983716857408419 14.63711037056153 5.633826408401309
275 1 3.983716857408419 14.63711037056153 22.53530563360524
276 5 3.983716857408419 14.63711037056154 14.08456602100328
277 4 3.983716857408419 17.07662876565512 18.30993582730426
278 1 3.983716857408419 17.07662876565512 26.76067543990622
279 3 3.983716857408419 17.07662876565513 9.859196214702292
280 1 3.983716857408419 17.07662876565513 35.21141505250818
281 3 3.983716857408419 19.51614716074871 14.08456602100328
282 1 3.983716857408419 19.51614716074871 22.53530563360524
283 2 3.983716857408419 21.9556655558423 9.859196214702292
284 2 3.983716857408419 21.9556655558423 35.21141505250818
285 3 3.983716857408419 21.9556655558423 18.30993582730426
286 3 3.983716857408419 21.9556655558423 26.76067543990622
287 4 3.983716857408419 24.39518395093589 22.53530563360524
288 3 3.983716857408419 26.83470234602948 18.30993582730426
289 1 3.983716857408419 26.83470234602948 35.21141505250818
290 5 3.98371685740842 17.07662876565512 1.408456602100327
291 1 3.98371685740842 19.51614716074871 5.633826408401311
292 2 3.98371685740842 19.51614716074871 39.43678485880917
293 3 3.98371685740842 21.9556655558423 1.408456602100328
294 3 3.98371685740842 24.39518395093589 5.633826408401309
295 3 3.98371685740842 24.39518395093589 14.08456602100328
296 2 3.98371685740842 24.39518395093589 30.9860452462072
297 1 3.98371685740842 26.83470234602948 1.408456602100328
298 1 3.98371685740842 26.83470234602948 9.859196214702292
299 4 3.983716857408421 26.83470234602948 26.76067543990622
300 4 4.979646071760522 2.439518395093587 40.84524146090949
301 1 4.979646071760522 2.439518395093589 15.4930226231036
302 1 4.979646071760522 2.439518395093589 23.94376223570556
303 2 4.979646071760522 7.318555185280768 23.94376223570556
304 2 4.979646071760522 7.318555185280768 40.84524146090949
305 4 4.979646071760522 12.19759197546795 40.84524146090949
306 2 4.979646071760523 0 2.816913204200655
307 4 4.979646071760523 0 11.26765281680262
308 4 4.979646071760523 0 19.71839242940458
309 4 4.979646071760523 0 28.16913204200655
310 5 4.979646071760523 0 36.61987165460852
311 5 4.979646071760523 2.439518395093589 7.042283010501638
312 3 4.979646071760523 4.879036790187177 19.71839242940458
313 2 4.979646071760523 4.879036790187177 36.61987165460852
314 1 4.979646071760523 4.879036790187178 11.26765281680262
315 2 4.979646071760523 4.879036790187179 2.816913204200655
316 5 4.979646071760523 4.879036790187179 28.16913204200655
317 2 4.979646071760523 7.318555185280768 7.042283010501636
318 1 4.979646071760523 9.758073580374354 28.16913204200655
319 3 4.979646071760523 9.758073580374356 36.61987165460852
320 2 4.979646071760523 9.758073580374358 19.71839242940458
321 5 4.979646071760523 14.63711037056154 28.16913204200655
322 4 4.979646071760523 14.63711037056154 36.61987165460852
323 4 4.979646071760523 19.51614716074871 28.16913204200655
324 4 4.979646071760523 24.39518395093589 36.61987165460852
325 3 4.979646071760524 2.43951839509359 32.39450184830753
326 1 4.979646071760524 7.318555185280766 32.39450184830753
327 2 4.979646071760524 7.318555185280767 15.4930226231036
328 4 4.979646071760524 9.758073580374356 2.816913204200655
329 1 4.979646071760524 9.758073580374356 11.26765281680262
330 4 4.979646071760524 12.19759197546795 7.042283010501636
331 3 4.979646071760524 12.19759197546795 23.94376223570556
332 4 4.979646071760524 12.19759197546795 32.39450184830753
333 1 4.979646071760524 12.19759197546795 15.4930226231036
334 3 4.979646071760524 14.63711037056153 2.816913204200655
335 1 4.979646071760524 14.63711037056153 19.71839242940458
336 4 4.979646071760524 14.63711037056154 11.26765281680262
337 1 4.979646071760524 17.07662876565512 15.4930226231036
338 1 4.979646071760524 17.07662876565512 23.94376223570556
339 3 4.979646071760524 17.07662876565512 40.84524146090949
340 4 4.979646071760524 17.07662876565513 7.042283010501638
341 2 4.979646071760524 17.07662876565513 32.39450184830753
342 1 4.979646071760524 19.51614716074871 2.816913204200656
343 1 4.979646071760524 19.51614716074871 11.26765281680262
344 1 4.979646071760524 19.51614716074871 19.71839242940458
345 2 4.979646071760524 21.9556655558423 7.042283010501638
346 2 4.979646071760524 21.9556655558423 32.39450184830753
347 2 4.979646071760524 21.9556655558423 15.4930226231036
348 2 4.979646071760524 21.9556655558423 23.94376223570556
349 1 4.979646071760524 21.9556655558423 40.84524146090949
350 2 4.979646071760524 24.39518395093589 19.71839242940458
351 2 4.979646071760524 26.83470234602948 15.4930226231036
352 1 4.979646071760524 26.83470234602948 32.39450184830753
353 5 4.979646071760524 26.83470234602948 40.84524146090949
354 3 4.979646071760524 19.51614716074871 36.61987165460852
355 2 4.979646071760524 24.39518395093589 2.816913204200655
356 1 4.979646071760524 24.39518395093589 11.26765281680262
357 1 4.979646071760524 24.39518395093589 28.16913204200655
358 4 4.979646071760524 26.83470234602948 7.042283010501636
359 4 4.979646071760525 26.83470234602948 23.94376223570556
360 3 5.975575286112626 2.439518395093587 38.02832825670884
361 1 5.975575286112626 2.439518395093589 12.67610941890295
362 3 5.975575286112626 2.439518395093589 21.12684903150491
363 2 5.975575286112626 7.318555185280768 21.12684903150491
364 4 5.975575286112626 7.318555185280768 38.02832825670884
365 2 5.975575286112626 12.19759197546795 38.02832825670884
366 5 5.975575286112627 0 0
367 2 5.975575286112627 0 8.450739612601964
368 4 5.975575286112627 0 16.90147922520393
369 5 5.975575286112627 0 25.35221883780589
370 2 5.975575286112627 0 33.80295845040786
371 1 5.975575286112627 2.439518395093589 4.225369806300983
372 4 5.975575286112627 4.879036790187177 16.90147922520393
373 5 5.975575286112627 4.879036790187177 33.80295845040786
374 1 5.975575286112627 4.879036790187178 8.450739612601964
375 4 5.975575286112627 4.879036790187179 0
376 4 5.975575286112627 4.879036790187179 25.3522188378059
377 3 5.975575286112627 7.318555185280768 4.225369806300982
378 1 5.975575286112627 9.758073580374354 25.3522188378059
379 5 5.975575286112627 9.758073580374356 0
380 1 5.975575286112627 9.758073580374356 33.80295845040786
381 4 5.975575286112627 9.758073580374358 16.90147922520393
382 3 5.975575286112627 14.63711037056154 25.35221883780589
383 3 5.975575286112627 14.63711037056154 33.80295845040786
384 4 5.975575286112627 19.51614716074871 25.35221883780589
385 3 5.975575286112627 24.39518395093589 33.80295845040786
386 5 5.975575286112628 2.43951839509359 29.57758864410687
387 4 5.975575286112628 7.318555185280766 29.57758864410687
388 2 5.975575286112628 7.318555185280767 12.67610941890295
389 4 5.975575286112628 9.758073580374356 8.450739612601964
390 4 5.975575286112628 12.19759197546795 4.225369806300982
391 4 5.975575286112628 12.19759197546795 21.12684903150491
392 1 5.975575286112628 12.19759197546795 29.57758864410687
393 4 5.975575286112628 12.19759197546795 12.67610941890295
394 1 5.975575286112628 14.63711037056153 0
395 4 5.975575286112628 14.63711037056153 16.90147922520393
396 1 5.975575286112628 14.63711037056154 8.450739612601964
397 2 5.975575286112628 17.07662876565512 12.67610941890295
398 5 5.975575286112628 17.07662876565512 21.12684903150491
399 2 5.975575286112628 17.07662876565512 38.02832825670884
400 2 5.975575286112628 17.07662876565513 4.225369806300983
401 3 5.975575286112628 17.07662876565513 29.57758864410687
402 1 5.975575286112628 19.51614716074871 8.450739612601964
403 3 5.975575286112628 19.51614716074871 16.90147922520393
404 1 5.975575286112628 21.9556655558423 4.225369806300983
405 1 5.975575286112628 21.9556655558423 29.57758864410687
406 3 5.975575286112628 21.9556655558423 12.67610941890295
407 2 5.975575286112628 21.9556655558423 21.12684903150491
408 4 5.975575286112628 21.9556655558423 38.02832825670883
409 2 5.975575286112628 24.39518395093589 16.90147922520393
410 3 5.975575286112628 26.83470234602948 12.67610941890295
411 4 5.975575286112628 26.83470234602948 29.57758864410687
412 1 5.975575286112628 26.83470234602948 38.02832825670884
413 1 5.975575286112629 19.51614716074871 1.172775711627822e-15
414 3 5.975575286112629 19.51614716074871 33.80295845040786
415 2 5.975575286112629 24.39518395093589 0
416 1 5.975575286112629 24.39518395093589 8.450739612601964
417 1 5.975575286112629 24.39518395093589 25.35221883780589
418 1 5.975575286112629 26.83470234602948 4.225369806300982
419 2 5.97557528611263 26.83470234602948 21.12684903150491
420 5 6.97150450046473 0 39.43678485880917
421 3 6.97150450046473 4.879036790187177 39.43678485880917
422 5 6.97150450046473 2.439518395093587 35.21141505250819
423 4 6.97150450046473 2.439518395093589 9.859196214702292
424 4 6.97150450046473 2.439518395093589 18.30993582730426
425 4 6.97150450046473 7.318555185280768 18.30993582730426
426 3 6.97150450046473 7.318555185280768 35.21141505250819
427 5 6.97150450046473 12.19759197546795 35.21141505250819
428 3 6.971504500464731 0 5.633826408401311
429 2 6.971504500464731 0 14.08456602100327
430 2 6.971504500464731 0 22.53530563360524
431 1 6.971504500464731 0 30.9860452462072
432 4 6.971504500464731 2.439518395093589 1.408456602100328
433 5 6.971504500464731 4.879036790187177 14.08456602100327
434 3 6.971504500464731 4.879036790187177 30.9860452462072
435 5 6.971504500464731 4.879036790187178 5.633826408401311
436 3 6.971504500464731 4.879036790187179 22.53530563360524
437 1 6.971504500464731 7.318555185280768 1.408456602100327
438 2 6.971504500464731 9.758073580374354 22.53530563360524
439 4 6.971504500464731 9.758073580374356 30.9860452462072
440 5 6.971504500464731 9.758073580374358 14.08456602100327
441 1 6.971504500464731 9.758073580374358 39.43678485880917
442 2 6.971504500464731 14.63711037056154 22.53530563360524
443 1 6.971504500464731 14.63711037056154 30.9860452462072
444 3 6.971504500464731 19.51614716074871 22.53530563360524
445 2 6.971504500464731 19.51614716074871 39.43678485880917
446 4 6.971504500464731 24.39518395093589 30.9860452462072
447 4 6.971504500464733 2.43951839509359 26.76067543990622
448 4 6.971504500464733 7.318555185280766 26.76067543990622
449 4 6.971504500464733 7.318555185280767 9.859196214702292
450 2 6.971504500464733 9.758073580374356 5.633826408401308
451 2 6.971504500464733 12.19759197546795 1.408456602100327
452 1 6.971504500464733 12.19759197546795 18.30993582730426
453 4 6.971504500464733 12.19759197546795 26.76067543990622
454 2 6.971504500464733 12.19759197546795 9.859196214702292
455 3 6.971504500464733 14.63711037056153 14.08456602100327
456 2 6.971504500464733 14.63711037056154 5.633826408401311
457 2 6.971504500464733 17.07662876565512 9.859196214702292
458 1 6.971504500464733 17.07662876565512 18.30993582730426
459 3 6.971504500464733 17.07662876565512 35.21141505250819
460 3 6.971504500464733 17.07662876565513 1.408456602100328
461 4 6.971504500464733 17.07662876565513 26.76067543990622
462 2 6.971504500464733 19.51614716074871 5.633826408401311
463 4 6.971504500464733 19.51614716074871 14.08456602100327
464 4 6.971504500464733 21.9556655558423 1.408456602100328
465 1 6.971504500464733 21.9556655558423 26.76067543990622
466 4 6.971504500464733 21.9556655558423 9.859196214702292
467 2 6.971504500464733 21.9556655558423 18.30993582730426
468 5 6.971504500464733 21.9556655558423 35.21141505250818
469 1 6.971504500464733 24.39518395093589 14.08456602100327
470 5 6.971504500464733 26.83470234602948 9.859196214702292
471 2 6.971504500464733 26.83470234602948 26.76067543990622
472 5 6.971504500464733 26.83470234602948 35.21141505250819
473 3 6.971504500464734 14.63711037056153 39.43678485880917
474 3 6.971504500464734 19.51614716074871 30.9860452462072
475 5 6.971504500464734 24.39518395093589 5.633826408401311
476 1 6.971504500464734 24.39518395093589 22.53530563360524
477 4 6.971504500464734 24.39518395093589 39.43678485880917
478 2 6.971504500464734 26.83470234602948 1.408456602100327
479 4 6.971504500464735 26.83470234602948 18.30993582730426
480 1 7.967433714816835 0 36.61987165460852
481 4 7.967433714816835 4.879036790187177 36.61987165460852
482 1 7.967433714816836 2.439518395093587 32.39450184830753
483 5 7.967433714816836 2.439518395093589 7.042283010501638
484 4 7.967433714816836 2.439518395093589 15.4930226231036
485 4 7.967433714816836 2.43951839509359 40.84524146090949
486 2 7.967433714816836 7.318555185280768 15.4930226231036
487 4 7.967433714816836 7.318555185280768 32.39450184830753
488 3 7.967433714816836 7.318555185280768 40.84524146090949
489 4 7.967433714816836 12.19759197546795 32.39450184830753
490 4 7.967433714816837 0 2.816913204200655
491 2 7.967433714816837 0 11.26765281680262
492 3 7.967433714816837 0 19.71839242940458
493 3 7.967433714816837 0 28.16913204200655
494 1 7.967433714816837 4.879036790187177 11.26765281680262
495 4 7.967433714816837 4.879036790187177 28.16913204200655
496 5 7.967433714816837 4.879036790187178 2.816913204200655
497 5 7.967433714816837 4.879036790187179 19.71839242940458
498 5 7.967433714816837 9.758073580374354 19.71839242940458
499 5 7.967433714816837 9.758073580374356 28.16913204200655
500 5 7.967433714816837 9.758073580374358 11.26765281680262
501 4 7.967433714816837 9.758073580374358 36.61987165460852
502 1 7.967433714816837 14.63711037056154 19.71839242940458
503 1 7.967433714816837 14.63711037056154 28.16913204200655
504 1 7.967433714816837 19.51614716074871 19.71839242940458
505 4 7.967433714816837 19.51614716074871 36.61987165460852
506 1 7.967433714816837 24.39518395093589 28.16913204200655
507 3 7.967433714816837 2.43951839509359 23.94376223570556
508 4 7.967433714816837 7.318555185280766 23.94376223570556
509 2 7.967433714816837 7.318555185280767 7.042283010501638
510 2 7.967433714816837 9.758073580374356 2.816913204200654
511 4 7.967433714816837 12.19759197546795 15.4930226231036
512 2 7.967433714816837 12.19759197546795 23.94376223570556
513 1 7.967433714816837 12.19759197546795 40.84524146090949
514 5 7.967433714816837 12.19759197546795 7.042283010501638
515 5 7.967433714816837 14.63711037056153 11.26765281680262
516 3 7.967433714816837 14.63711037056154 2.816913204200655
517 1 7.967433714816837 17.07662876565512 7.042283010501638
518 1 7.967433714816837 17.07662876565512 15.4930226231036
519 4 7.967433714816837 17.07662876565512 32.39450184830753
520 4 7.967433714816837 17.07662876565512 40.84524146090949
521 5 7.967433714816837 17.07662876565513 23.94376223570556
522 4 7.967433714816837 19.51614716074871 2.816913204200655
523 4 7.967433714816837 19.51614716074871 11.26765281680262
524 3 7.967433714816837 21.9556655558423 23.94376223570556
525 5 7.967433714816837 21.9556655558423 7.042283010501638
526 4 7.967433714816837 21.9556655558423 15.4930226231036
527 5 7.967433714816837 21.9556655558423 32.39450184830753
528 2 7.967433714816837 21.9556655558423 40.84524146090949
529 5 7.967433714816837 24.39518395093589 11.26765281680262
530 2 7.967433714816837 26.83470234602948 7.042283010501638
531 5 7.967433714816837 26.83470234602948 23.94376223570556
532 1 7.967433714816837 26.83470234602948 32.39450184830753
533 1 7.967433714816837 26.83470234602948 40.84524146090949
534 3 7.967433714816838 14.63711037056153 36.61987165460852
535 4 7.967433714816838 19.51614716074871 28.16913204200655
536 1 7.967433714816838 24.39518395093589 2.816913204200655
537 2 7.967433714816838 24.39518395093589 19.71839242940458
538 3 7.967433714816838 24.39518395093589 36.61987165460852
539 3 7.967433714816839 26.83470234602948 15.4930226231036
540 3 8.963362929168939 0 0
541 2 8.963362929168939 0 8.450739612601964
542 1 8.963362929168939 0 16.90147922520393
543 3 8.963362929168939 0 25.3522188378059
544 2 8.963362929168939 0 33.80295845040786
545 2 8.963362929168939 2.439518395093587 29.57758864410687
546 1 8.963362929168939 2.439518395093589 4.225369806300982
547 5 8.963362929168939 2.439518395093589 12.67610941890295
548 2 8.963362929168939 2.43951839509359 38.02832825670884
549 1 8.963362929168939 4.879036790187177 8.450739612601964
550 4 8.963362929168939 4.879036790187177 25.3522188378059
551 5 8.963362929168939 4.879036790187177 33.80295845040786
552 5 8.963362929168939 4.879036790187178 0
553 1 8.963362929168939 4.879036790187179 16.90147922520393
554 3 8.963362929168939 7.318555185280768 12.67610941890295
555 3 8.963362929168939 7.318555185280768 29.57758864410687
556 4 8.963362929168939 7.318555185280768 38.02832825670884
557 1 8.963362929168939 9.758073580374354 16.90147922520393
558 4 8.963362929168939 9.758073580374356 25.3522188378059
559 2 8.963362929168939 9.758073580374358 8.450739612601964
560 5 8.963362929168939 9.758073580374358 33.80295845040786
561 4 8.963362929168939 12.19759197546795 29.57758864410687
562 2 8.963362929168939 14.63711037056154 16.90147922520393
563 5 8.963362929168939 14.63711037056154 25.3522188378059
564 3 8.963362929168939 19.51614716074871 16.90147922520393
565 2 8.963362929168939 19.51614716074871 33.80295845040786
566 3 8.963362929168939 24.39518395093589 25.35221883780589
567 3 8.963362929168941 2.43951839509359 21.12684903150491
568 3 8.963362929168941 7.318555185280766 21.12684903150491
569 4 8.963362929168941 7.318555185280767 4.225369806300982
570 1 8.963362929168941 9.758073580374356 42.25369806300982
571 4 8.963362929168941 12.19759197546795 12.67610941890295
572 3 8.963362929168941 12.19759197546795 21.12684903150491
573 4 8.963362929168941 12.19759197546795 38.02832825670884
574 4 8.963362929168941 12.19759197546795 4.225369806300982
575 3 8.963362929168941 14.63711037056153 8.450739612601964
576 3 8.963362929168941 14.63711037056154 0
577 4 8.963362929168941 17.07662876565512 4.225369806300982
578 3 8.963362929168941 17.07662876565512 12.67610941890295
579 5 8.963362929168941 17.07662876565512 29.57758864410687
580 2 8.963362929168941 17.07662876565512 38.02832825670884
581 1 8.963362929168941 17.07662876565513 21.12684903150491
582 5 8.963362929168941 19.51614716074871 0
583 3 8.963362929168941 19.51614716074871 8.450739612601964
584 4 8.963362929168941 21.9556655558423 21.12684903150491
585 3 8.963362929168941 21.9556655558423 4.225369806300982
586 2 8.963362929168941 21.9556655558423 12.67610941890295
587 2 8.963362929168941 21.9556655558423 29.57758864410687
588 2 8.963362929168941 21.9556655558423 38.02832825670884
589 4 8.963362929168941 24.39518395093589 8.450739612601964
590 5 8.963362929168941 26.83470234602948 4.225369806300982
591 4 8.963362929168941 26.83470234602948 21.12684903150491
592 4 8.963362929168941 26.83470234602948 29.57758864410687
593 1 8.963362929168941 26.83470234602948 38.02832825670884
594 2 8.963362929168943 14.63711037056153 33.80295845040786
595 2 8.963362929168943 19.51614716074871 25.35221883780589
596 2 8.963362929168943 24.39518395093589 0
597 5 8.963362929168943 24.39518395093589 16.90147922520393
598 1 8.963362929168943 24.39518395093589 33.80295845040786
599 4 8.963362929168943 26.83470234602948 12.67610941890295
600 4 9.959292143521044 0 30.9860452462072
601 3 9.959292143521044 2.439518395093587 26.76067543990622
602 2 9.959292143521044 2.439518395093589 1.408456602100327
603 4 9.959292143521044 2.439518395093589 9.859196214702292
604 4 9.959292143521044 2.43951839509359 35.21141505250818
605 2 9.959292143521044 4.879036790187177 30.9860452462072
606 4 9.959292143521044 7.318555185280768 9.859196214702294
607 1 9.959292143521044 7.318555185280768 26.76067543990622
608 5 9.959292143521044 7.318555185280768 35.21141505250818
609 4 9.959292143521044 12.19759197546795 26.76067543990622
610 3 9.959292143521045 0 5.633826408401309
611 1 9.959292143521045 0 14.08456602100327
612 3 9.959292143521045 0 22.53530563360524
613 3 9.959292143521045 0 39.43678485880917
614 2 9.959292143521045 4.879036790187177 5.633826408401309
615 4 9.959292143521045 4.879036790187177 22.53530563360524
616 5 9.959292143521045 4.879036790187179 14.08456602100328
617 4 9.959292143521045 4.879036790187181 39.43678485880917
618 3 9.959292143521045 9.758073580374354 14.08456602100328
619 5 9.959292143521045 9.758073580374354 39.43678485880917
620 5 9.959292143521045 9.758073580374356 22.53530563360524
621 4 9.959292143521045 9.758073580374358 5.633826408401309
622 5 9.959292143521045 9.758073580374358 30.9860452462072
623 3 9.959292143521045 14.63711037056154 14.08456602100327
624 5 9.959292143521045 14.63711037056154 22.53530563360524
625 5 9.959292143521045 14.63711037056154 39.43678485880917
626 2 9.959292143521045 19.51614716074871 14.08456602100327
627 3 9.959292143521045 19.51614716074871 30.9860452462072
628 5 9.959292143521045 19.51614716074872 39.43678485880917
629 4 9.959292143521045 24.39518395093589 22.53530563360524
630 2 9.959292143521045 24.39518395093589 39.43678485880917
631 1 9.959292143521047 2.43951839509359 18.30993582730426
632 5 9.959292143521047 7.318555185280766 18.30993582730426
633 5 9.959292143521047 7.318555185280767 1.408456602100327
634 3 9.959292143521047 12.19759197546795 9.859196214702292
635 5 9.959292143521047 12.19759197546795 18.30993582730426
636 2 9.959292143521047 12.19759197546795 35.21141505250818
637 3 9.959292143521047 12.19759197546795 1.408456602100327
638 2 9.959292143521047 14.63711037056153 5.633826408401309
639 3 9.959292143521047 14.63711037056153 30.9860452462072
640 1 9.959292143521047 17.07662876565512 1.408456602100327
641 3 9.959292143521047 17.07662876565512 9.859196214702292
642 5 9.959292143521047 17.07662876565512 26.76067543990622
643 2 9.959292143521047 17.07662876565512 35.21141505250818
644 2 9.959292143521047 17.07662876565513 18.30993582730425
645 3 9.959292143521047 19.51614716074871 5.633826408401309
646 3 9.959292143521047 19.51614716074871 22.53530563360524
647 4 9.959292143521047 21.9556655558423 18.30993582730425
648 2 9.959292143521047 21.9556655558423 1.408456602100327
649 3 9.959292143521047 21.9556655558423 9.859196214702292
650 5 9.959292143521047 21.9556655558423 26.76067543990622
651 2 9.959292143521047 21.9556655558423 35.21141505250818
652 1 9.959292143521047 24.39518395093589 14.08456602100327
653 5 9.959292143521047 24.39518395093589 5.633826408401309
654 5 9.959292143521047 24.39518395093589 30.9860452462072
655 3 9.959292143521047 26.83470234602948 1.408456602100327
656 5 9.959292143521047 26.83470234602948 9.859196214702292
657 4 9.959292143521047 26.83470234602948 18.30993582730425
658 2 9.959292143521047 26.83470234602948 26.76067543990622
659 4 9.959292143521047 26.83470234602948 35.21141505250818
660 2 10.95522135787315 0 28.16913204200655
661 5 10.95522135787315 4.879036790187177 28.16913204200655
662 2 10.95522135787315 2.439518395093587 23.94376223570556
663 4 10.95522135787315 2.439518395093589 7.042283010501636
664 5 10.95522135787315 2.43951839509359 32.39450184830753
665 2 10.95522135787315 2.43951839509359 40.84524146090949
666 3 10.95522135787315 7.318555185280768 7.042283010501639
667 2 10.95522135787315 7.318555185280768 23.94376223570556
668 3 10.95522135787315 7.318555185280768 32.39450184830753
669 1 10.95522135787315 7.318555185280768 40.84524146090949
670 1 10.95522135787315 12.19759197546795 40.84524146090949
671 1 10.95522135787315 12.19759197546795 23.94376223570556
672 3 10.95522135787315 17.07662876565513 40.84524146090949
673 1 10.95522135787315 21.9556655558423 40.84524146090949
674 2 10.95522135787315 26.83470234602948 40.84524146090949
675 4 10.95522135787315 0 2.816913204200654
676 4 10.95522135787315 0 11.26765281680262
677 1 10.95522135787315 0 19.71839242940458
678 3 10.95522135787315 0 36.61987165460852
679 2 10.95522135787315 2.43951839509359 15.4930226231036
680 3 10.95522135787315 4.879036790187177 2.816913204200654
681 4 10.95522135787315 4.879036790187177 19.71839242940458
682 3 10.95522135787315 4.879036790187179 11.26765281680262
683 2 10.95522135787315 4.879036790187181 36.61987165460852
684 5 10.95522135787315 7.318555185280766 15.4930226231036
685 4 10.95522135787315 9.758073580374354 11.26765281680262
686 1 10.95522135787315 9.758073580374354 36.61987165460852
687 4 10.95522135787315 9.758073580374356 19.71839242940458
688 3 10.95522135787315 9.758073580374358 2.816913204200654
689 1 10.95522135787315 9.758073580374358 28.16913204200655
690 5 10.95522135787315 12.19759197546795 7.042283010501636
691 3 10.95522135787315 12.19759197546795 15.4930226231036
692 2 10.95522135787315 12.19759197546795 32.39450184830753
693 2 10.95522135787315 14.63711037056153 2.816913204200654
694 3 10.95522135787315 14.63711037056153 28.16913204200655
695 5 10.95522135787315 14.63711037056154 11.26765281680262
696 3 10.95522135787315 14.63711037056154 19.71839242940458
697 2 10.95522135787315 14.63711037056154 36.61987165460852
698 4 10.95522135787315 17.07662876565512 7.042283010501636
699 4 10.95522135787315 17.07662876565512 23.94376223570556
700 3 10.95522135787315 17.07662876565512 32.39450184830753
701 2 10.95522135787315 17.07662876565513 15.4930226231036
702 1 10.95522135787315 19.51614716074871 2.816913204200654
703 4 10.95522135787315 19.51614716074871 11.26765281680262
704 5 10.95522135787315 19.51614716074871 19.71839242940458
705 4 10.95522135787315 19.51614716074871 28.16913204200655
706 2 10.95522135787315 19.51614716074872 36.61987165460852
707 5 10.95522135787315 21.9556655558423 15.4930226231036
708 3 10.95522135787315 21.9556655558423 7.042283010501636
709 1 10.95522135787315 21.9556655558423 23.94376223570556
710 5 10.95522135787315 21.9556655558423 32.39450184830753
711 3 10.95522135787315 24.39518395093589 11.26765281680262
712 3 10.95522135787315 24.39518395093589 19.71839242940458
713 5 10.95522135787315 24.39518395093589 36.61987165460852
714 2 10.95522135787315 24.39518395093589 2.816913204200654
715 4 10.95522135787315 24.39518395093589 28.16913204200655
716 4 10.95522135787315 26.83470234602948 15.4930226231036
717 3 10.95522135787315 26.83470234602948 23.94376223570556
718 3 10.95522135787315 26.83470234602948 32.39450184830753
719 3 10.95522135787315 26.83470234602948 7.042283010501636
720 5 11.95115057222525 0 25.35221883780589
721 1 11.95115057222525 4.879036790187177 25.35221883780589
722 4 11.95115057222525 0 0
723 4 11.95115057222525 0 8.450739612601964
724 5 11.95115057222525 0 16.90147922520393
725 4 11.95115057222525 0 33.80295845040786
726 3 11.95115057222525 2.439518395093587 21.12684903150491
727 1 11.95115057222525 2.439518395093589 4.225369806300981
728 2 11.95115057222525 2.43951839509359 12.67610941890295
729 3 11.95115057222525 2.43951839509359 29.57758864410687
730 4 11.95115057222525 2.43951839509359 38.02832825670883
731 4 11.95115057222525 4.879036790187177 0
732 2 11.95115057222525 4.879036790187177 16.90147922520393
733 2 11.95115057222525 4.879036790187179 8.450739612601966
734 1 11.95115057222525 4.879036790187181 33.80295845040786
735 4 11.95115057222525 7.318555185280766 12.67610941890295
736 3 11.95115057222525 7.318555185280768 4.225369806300984
737 4 11.95115057222525 7.318555185280768 21.12684903150491
738 5 11.95115057222525 7.318555185280768 29.57758864410687
739 4 11.95115057222525 7.318555185280768 38.02832825670883
740 1 11.95115057222525 9.758073580374354 8.450739612601966
741 3 11.95115057222525 9.758073580374354 33.80295845040786
742 1 11.95115057222525 9.758073580374356 16.90147922520393
743 4 11.95115057222525 9.758073580374358 0
744 1 11.95115057222525 9.758073580374358 25.35221883780589
745 3 11.95115057222525 12.19759197546795 4.225369806300981
746 1 11.95115057222525 12.19759197546795 12.67610941890295
747 4 11.95115057222525 12.19759197546795 29.57758864410687
748 2 11.95115057222525 12.19759197546795 38.02832825670883
749 3 11.95115057222525 12.19759197546795 21.12684903150491
750 2 11.95115057222525 14.63711037056153 0
751 1 11.95115057222525 14.63711037056154 8.450739612601964
752 4 11.95115057222525 14.63711037056154 16.90147922520393
753 5 11.95115057222525 14.63711037056154 33.80295845040786
754 2 11.95115057222525 17.07662876565512 4.225369806300981
755 5 11.95115057222525 17.07662876565512 21.12684903150491
756 5 11.95115057222525 17.07662876565512 29.57758864410687
757 4 11.95115057222525 17.07662876565513 12.67610941890295
758 5 11.95115057222525 17.07662876565513 38.02832825670883
759 2 11.95115057222525 19.51614716074871 0
760 2 11.95115057222525 19.51614716074871 8.450739612601964
761 1 11.95115057222525 19.51614716074871 25.35221883780589
762 2 11.95115057222525 19.51614716074872 33.80295845040786
763 4 11.95115057222525 21.9556655558423 12.67610941890295
764 1 11.95115057222525 21.9556655558423 4.225369806300981
765 5 11.95115057222525 21.9556655558423 21.12684903150491
766 5 11.95115057222525 21.9556655558423 29.57758864410687
767 2 11.95115057222525 21.9556655558423 38.02832825670883
768 1 11.95115057222525 24.39518395093589 16.90147922520393
769 3 11.95115057222525 24.39518395093589 33.80295845040786
770 2 11.95115057222525 24.39518395093589 0
771 2 11.95115057222525 26.83470234602948 38.02832825670883
772 2 11.95115057222525 26.83470234602948 12.67610941890295
773 5 11.95115057222525 26.83470234602948 21.12684903150491
774 5 11.95115057222525 26.83470234602948 29.57758864410687
775 5 11.95115057222526 14.63711037056153 25.35221883780589
776 3 11.95115057222526 19.51614716074871 16.90147922520393
777 5 11.95115057222526 24.39518395093589 8.450739612601964
778 4 11.95115057222526 24.39518395093589 25.35221883780589
779 3 11.95115057222526 26.83470234602948 4.225369806300981
780 3 12.94707978657736 0 5.633826408401308
781 3 12.94707978657736 0 14.08456602100328
782 5 12.94707978657736 0 22.53530563360524
783 1 12.94707978657736 0 30.9860452462072
784 2 12.94707978657736 0 39.43678485880917
785 5 12.94707978657736 2.439518395093587 18.30993582730426
786 5 12.94707978657736 2.439518395093589 1.408456602100327
787 4 12.94707978657736 2.43951839509359 26.76067543990622
788 2 12.94707978657736 2.43951839509359 35.21141505250818
789 2 12.94707978657736 4.879036790187177 14.08456602100328
790 2 12.94707978657736 4.879036790187177 22.53530563360524
791 4 12.94707978657736 4.879036790187177 39.43678485880917
792 5 12.94707978657736 4.879036790187179 5.633826408401311
793 4 12.94707978657736 4.879036790187181 30.9860452462072
794 4 12.94707978657736 7.318555185280768 1.408456602100329
795 2 12.94707978657736 7.318555185280768 18.30993582730426
796 2 12.94707978657736 7.318555185280768 26.76067543990622
797 5 12.94707978657736 7.318555185280768 35.21141505250818
798 2 12.94707978657736 9.758073580374354 5.633826408401311
799 5 12.94707978657736 9.758073580374354 30.9860452462072
800 4 12.94707978657736 9.758073580374356 14.08456602100328
801 1 12.94707978657736 9.758073580374358 22.53530563360524
802 4 12.94707978657736 9.758073580374358 39.43678485880917
803 4 12.94707978657736 12.19759197546795 35.21141505250818
804 3 12.94707978657736 12.19759197546795 18.30993582730426
805 4 12.94707978657736 14.63711037056154 5.633826408401308
806 1 12.94707978657736 14.63711037056154 14.08456602100328
807 3 12.94707978657736 14.63711037056154 30.9860452462072
808 2 12.94707978657736 14.63711037056154 39.43678485880917
809 2 12.94707978657736 17.07662876565513 35.21141505250818
810 3 12.94707978657736 19.51614716074871 5.633826408401308
811 5 12.94707978657736 19.51614716074871 22.53530563360524
812 1 12.94707978657736 19.51614716074871 39.43678485880917
813 5 12.94707978657736 19.51614716074872 30.9860452462072
814 3 12.94707978657736 21.9556655558423 35.21141505250818
815 2 12.94707978657736 24.39518395093589 14.08456602100327
816 3 12.94707978657736 24.39518395093589 30.9860452462072
817 2 12.94707978657736 26.83470234602948 35.21141505250818
818 1 12.94707978657736 2.43951839509359 9.859196214702292
819 5 12.94707978657736 7.318555185280766 9.859196214702292
820 1 12.94707978657736 12.19759197546795 1.408456602100327
821 3 12.94707978657736 12.19759197546795 9.859196214702292
822 5 12.94707978657736 12.19759197546795 26.76067543990622
823 3 12.94707978657736 17.07662876565512 1.408456602100327
824 2 12.94707978657736 17.07662876565512 18.30993582730426
825 3 12.94707978657736 17.07662876565512 26.76067543990622
826 1 12.94707978657736 17.07662876565513 9.85919621470229
827 2 12.94707978657736 21.9556655558423 9.85919621470229
828 1 12.94707978657736 21.9556655558423 1.408456602100327
829 1 12.94707978657736 21.9556655558423 18.30993582730425
830 3 12.94707978657736 21.9556655558423 26.76067543990622
831 2 12.94707978657736 26.83470234602948 9.85919621470229
832 2 12.94707978657736 26.83470234602948 18.30993582730426
833 5 12.94707978657736 26.83470234602948 26.76067543990622
834 4 12.94707978657736 14.63711037056153 22.53530563360524
835 5 12.94707978657736 19.51614716074871 14.08456602100327
836 2 12.94707978657736 24.39518395093589 5.633826408401308
837 1 12.94707978657736 24.39518395093589 39.43678485880917
838 5 12.94707978657736 24.39518395093589 22.53530563360524
839 2 12.94707978657736 26.83470234602948 1.408456602100327
840 4 13.94300900092946 0 19.71839242940458
841 4 13.94300900092946 0 36.61987165460852
842 5 13.94300900092946 2.439518395093587 15.4930226231036
843 1 13.94300900092946 2.439518395093587 40.84524146090949
844 4 13.94300900092946 2.43951839509359 23.94376223570556
845 5 13.94300900092946 2.43951839509359 32.39450184830753
846 5 13.94300900092946 4.879036790187177 19.71839242940458
847 1 13.94300900092946 4.879036790187177 36.61987165460852
848 2 13.94300900092946 7.318555185280768 15.4930226231036
849 4 13.94300900092946 7.318555185280768 23.94376223570556
850 4 13.94300900092946 7.318555185280768 32.39450184830753
851 3 13.94300900092946 7.318555185280768 40.84524146090949
852 2 13.94300900092946 9.758073580374358 36.61987165460852
853 2 13.94300900092946 12.19759197546795 32.39450184830753
854 4 13.94300900092946 12.19759197546795 15.4930226231036
855 2 13.94300900092946 14.63711037056154 36.61987165460852
856 5 13.94300900092946 17.07662876565512 40.84524146090949
857 3 13.94300900092946 17.07662876565513 32.39450184830753
858 5 13.94300900092946 19.51614716074871 36.61987165460852
859 1 13.94300900092946 21.9556655558423 32.39450184830753
860 5 13.94300900092946 26.83470234602948 32.39450184830753
861 3 13.94300900092946 0 2.816913204200654
862 5 13.94300900092946 0 11.26765281680262
863 5 13.94300900092946 0 28.16913204200655
864 4 13.94300900092946 4.879036790187177 11.26765281680262
865 4 13.94300900092946 4.879036790187179 2.816913204200656
866 1 13.94300900092946 4.879036790187181 28.16913204200655
867 3 13.94300900092946 9.758073580374354 2.816913204200656
868 3 13.94300900092946 9.758073580374354 28.16913204200655
869 1 13.94300900092946 9.758073580374356 11.26765281680262
870 2 13.94300900092946 9.758073580374358 19.71839242940458
871 3 13.94300900092946 14.63711037056154 2.816913204200654
872 2 13.94300900092946 14.63711037056154 11.26765281680262
873 5 13.94300900092946 14.63711037056154 28.16913204200655
874 4 13.94300900092946 19.51614716074871 2.816913204200654
875 4 13.94300900092946 19.51614716074871 19.71839242940458
876 2 13.94300900092946 19.51614716074872 28.16913204200655
877 4 13.94300900092946 24.39518395093589 11.26765281680262
878 4 13.94300900092946 24.39518395093589 28.16913204200655
879 2 13.94300900092947 2.43951839509359 7.042283010501638
880 5 13.94300900092947 7.318555185280766 7.042283010501638
881 3 13.94300900092947 12.19759197546795 7.042283010501638
882 1 13.94300900092947 12.19759197546795 23.94376223570556
883 5 13.94300900092947 12.19759197546795 40.84524146090949
884 5 13.94300900092947 14.63711037056153 19.71839242940458
885 4 13.94300900092947 17.07662876565512 15.4930226231036
886 1 13.94300900092947 17.07662876565512 23.94376223570556
887 1 13.94300900092947 17.07662876565513 7.042283010501635
888 5 13.94300900092947 19.51614716074871 11.26765281680262
889 3 13.94300900092947 21.9556655558423 7.042283010501635
890 5 13.94300900092947 21.9556655558423 40.84524146090949
891 4 13.94300900092947 21.9556655558423 15.4930226231036
892 1 13.94300900092947 21.9556655558423 23.94376223570556
893 2 13.94300900092947 24.39518395093589 2.816913204200654
894 1 13.94300900092947 24.39518395093589 36.61987165460852
895 3 13.94300900092947 24.39518395093589 19.71839242940458
896 2 13.94300900092947 26.83470234602948 7.042283010501635
897 3 13.94300900092947 26.83470234602948 15.4930226231036
898 4 13.94300900092947 26.83470234602948 23.94376223570556
899 5 13.94300900092947 26.83470234602948 40.84524146090949
900 1 14.93893821528157 0 16.90147922520393
901 2 14.93893821528157 0 33.80295845040786
902 3 14.93893821528157 2.439518395093587 38.02832825670883
903 4 14.93893821528157 4.879036790187177 16.90147922520393
904 3 14.93893821528157 4.879036790187177 33.80295845040786
905 4 14.93893821528157 7.318555185280768 38.02832825670883
906 4 14.93893821528157 9.758073580374358 33.80295845040786
907 4 14.93893821528157 14.63711037056154 33.80295845040786
908 4 14.93893821528157 17.07662876565512 38.02832825670883
909 1 14.93893821528157 19.51614716074871 33.80295845040786
910 2 14.93893821528157 2.439518395093587 12.67610941890295
911 2 14.93893821528157 2.43951839509359 21.12684903150491
912 4 14.93893821528157 2.43951839509359 29.57758864410687
913 4 14.93893821528157 7.318555185280768 12.67610941890295
914 3 14.93893821528157 7.318555185280768 21.12684903150491
915 4 14.93893821528157 7.318555185280768 29.57758864410687
916 5 14.93893821528157 12.19759197546795 29.57758864410687
917 3 14.93893821528157 12.19759197546795 12.67610941890295
918 2 14.93893821528157 17.07662876565513 29.57758864410687
919 4 14.93893821528157 21.9556655558423 29.57758864410687
920 4 14.93893821528157 26.83470234602948 29.57758864410687
921 1 14.93893821528157 0 0
922 1 14.93893821528157 0 8.450739612601964
923 4 14.93893821528157 0 25.35221883780589
924 3 14.93893821528157 2.43951839509359 4.225369806300984
925 3 14.93893821528157 4.879036790187177 8.450739612601964
926 3 14.93893821528157 4.879036790187179 2.345551423255644e-15
927 1 14.93893821528157 4.879036790187181 25.35221883780589
928 2 14.93893821528157 7.318555185280766 4.225369806300984
929 2 14.93893821528157 9.758073580374354 2.345551423255644e-15
930 3 14.93893821528157 9.758073580374354 25.35221883780589
931 4 14.93893821528157 9.758073580374356 8.450739612601964
932 2 14.93893821528157 9.758073580374358 16.90147922520393
933 1 14.93893821528157 12.19759197546795 4.225369806300984
934 4 14.93893821528157 12.19759197546795 21.12684903150491
935 4 14.93893821528157 12.19759197546795 38.02832825670883
936 5 14.93893821528157 14.63711037056153 16.90147922520393
937 4 14.93893821528157 14.63711037056154 0
938 3 14.93893821528157 14.63711037056154 8.450739612601964
939 4 14.93893821528157 14.63711037056154 25.35221883780589
940 1 14.93893821528157 17.07662876565512 12.67610941890295
941 3 14.93893821528157 17.07662876565512 21.12684903150491
942 1 14.93893821528157 17.07662876565513 4.225369806300981
943 1 14.93893821528157 19.51614716074871 0
944 1 14.93893821528157 19.51614716074871 8.450739612601962
945 2 14.93893821528157 19.51614716074871 16.90147922520393
946 5 14.93893821528157 19.51614716074872 25.35221883780589
947 2 14.93893821528157 21.9556655558423 4.225369806300981
948 5 14.93893821528157 21.9556655558423 38.02832825670883
949 3 14.93893821528157 21.9556655558423 12.67610941890294
950 1 14.93893821528157 21.9556655558423 21.12684903150491
951 5 14.93893821528157 24.39518395093589 0
952 5 14.93893821528157 24.39518395093589 8.450739612601962
953 3 14.93893821528157 24.39518395093589 25.35221883780589
954 5 14.93893821528157 24.39518395093589 33.80295845040786
955 1 14.93893821528157 24.39518395093589 16.90147922520393
956 5 14.93893821528157 26.83470234602948 4.225369806300981
957 2 14.93893821528157 26.83470234602948 12.67610941890295
958 4 14.93893821528157 26.83470234602948 21.12684903150491
959 1 14.93893821528157 26.83470234602948 38.02832825670883
960 3 15.93486742963367 2.439518395093587 35.21141505250818
961 4 15.93486742963367 4.879036790187177 39.43678485880917
962 4 15.93486742963367 7.318555185280768 35.21141505250818
963 1 15.93486742963367 17.07662876565512 35.21141505250818
964 3 15.93486742963367 0 14.08456602100328
965 4 15.93486742963367 0 30.9860452462072
966 2 15.93486742963367 4.879036790187177 14.08456602100328
967 2 15.93486742963367 4.879036790187177 30.9860452462072
968 3 15.93486742963367 9.758073580374358 30.9860452462072
969 5 15.93486742963367 14.63711037056154 30.9860452462072
970 1 15.93486742963367 19.51614716074871 30.9860452462072
971 3 15.93486742963367 0 5.633826408401311
972 1 15.93486742963367 0 22.53530563360524
973 5 15.93486742963367 0 39.43678485880917
974 2 15.93486742963367 2.439518395093587 9.859196214702292
975 3 15.93486742963367 2.43951839509359 1.408456602100329
976 2 15.93486742963367 2.43951839509359 18.30993582730426
977 5 15.93486742963367 2.43951839509359 26.76067543990622
978 2 15.93486742963367 4.879036790187177 5.633826408401311
979 4 15.93486742963367 4.879036790187181 22.53530563360524
980 2 15.93486742963367 7.318555185280766 1.408456602100329
981 2 15.93486742963367 7.318555185280768 9.859196214702292
982 3 15.93486742963367 7.318555185280768 18.30993582730426
983 2 15.93486742963367 7.318555185280768 26.76067543990622
984 2 15.93486742963367 9.758073580374354 22.53530563360524
985 2 15.93486742963367 9.758073580374356 5.633826408401311
986 3 15.93486742963367 9.758073580374358 14.08456602100328
987 1 15.93486742963367 9.758073580374358 39.43678485880917
988 1 15.93486742963367 12.19759197546795 1.408456602100329
989 2 15.93486742963367 12.19759197546795 18.30993582730426
990 2 15.93486742963367 12.19759197546795 26.76067543990622
991 2 15.93486742963367 12.19759197546795 9.859196214702292
992 5 15.93486742963367 12.19759197546795 35.21141505250818
993 3 15.93486742963367 14.63711037056154 5.633826408401311
994 1 15.93486742963367 14.63711037056154 22.53530563360524
995 4 15.93486742963367 14.63711037056154 39.43678485880917
996 3 15.93486742963367 17.07662876565512 9.859196214702292
997 4 15.93486742963367 17.07662876565512 18.30993582730426
998 2 15.93486742963367 17.07662876565513 1.408456602100327
999 2 15.93486742963367 17.07662876565513 26.76067543990622
1000 3 15.93486742963367 19.51614716074871 39.43678485880917
1001 3 15.93486742963367 19.51614716074871 14.08456602100328
1002 2 15.93486742963367 19.51614716074872 22.53530563360524
1003 4 15.93486742963367 21.9556655558423 1.408456602100327
1004 4 15.93486742963367 21.9556655558423 35.21141505250818
1005 1 15.93486742963367 21.9556655558423 9.859196214702289
1006 3 15.93486742963367 21.9556655558423 18.30993582730426
1007 2 15.93486742963367 21.9556655558423 26.76067543990622
1008 4 15.93486742963367 24.39518395093589 5.633826408401308
1009 3 15.93486742963367 24.39518395093589 22.53530563360524
1010 2 15.93486742963367 24.39518395093589 39.43678485880917
1011 1 15.93486742963367 26.83470234602948 26.76067543990622
1012 1 15.93486742963367 26.83470234602948 1.408456602100327
1013 4 15.93486742963367 26.83470234602948 9.859196214702292
1014 1 15.93486742963367 26.83470234602948 18.30993582730426
1015 3 15.93486742963367 26.83470234602948 35.21141505250818
1016 5 15.93486742963367 14.63711037056153 14.08456602100328
1017 2 15.93486742963367 19.51614716074871 5.633826408401308
1018 1 15.93486742963367 24.39518395093589 30.9860452462072
1019 5 15.93486742963367 24.39518395093589 14.08456602100328
1020 1 16.93079664398577 4.879036790187177 36.61987165460852
1021 3 16.93079664398578 0 2.816913204200656
1022 4 16.93079664398578 0 11.26765281680262
1023 4 16.93079664398578 0 19.71839242940458
1024 2 16.93079664398578 0 28.16913204200655
1025 5 16.93079664398578 0 36.61987165460852
1026 5 16.93079664398578 2.439518395093587 7.042283010501638
1027 2 16.93079664398578 2.439518395093587 32.39450184830753
1028 3 16.93079664398578 2.43951839509359 15.4930226231036
1029 1 16.93079664398578 2.43951839509359 23.94376223570556
1030 2 16.93079664398578 2.43951839509359 40.84524146090949
1031 4 16.93079664398578 4.879036790187177 2.816913204200656
1032 3 16.93079664398578 4.879036790187177 11.26765281680262
1033 2 16.93079664398578 4.879036790187177 28.16913204200655
1034 2 16.93079664398578 4.879036790187181 19.71839242940458
1035 4 16.93079664398578 7.318555185280768 7.042283010501638
1036 1 16.93079664398578 7.318555185280768 15.4930226231036
1037 4 16.93079664398578 7.318555185280768 23.94376223570556
1038 3 16.93079664398578 7.318555185280768 32.39450184830753
1039 2 16.93079664398578 7.318555185280768 40.84524146090949
1040 4 16.93079664398578 9.758073580374354 19.71839242940458
1041 4 16.93079664398578 9.758073580374356 2.816913204200656
1042 1 16.93079664398578 9.758073580374358 11.26765281680262
1043 4 16.93079664398578 9.758073580374358 28.16913204200655
1044 3 16.93079664398578 9.758073580374358 36.61987165460852
1045 1 16.93079664398578 12.19759197546795 15.4930226231036
1046 3 16.93079664398578 12.19759197546795 23.94376223570556
1047 3 16.93079664398578 12.19759197546795 40.84524146090949
1048 5 16.93079664398578 12.19759197546795 7.042283010501638
1049 4 16.93079664398578 12.19759197546795 32.39450184830753
1050 4 16.93079664398578 14.63711037056154 2.816913204200656
1051 3 16.93079664398578 14.63711037056154 19.71839242940458
1052 4 16.93079664398578 14.63711037056154 28.16913204200655
1053 4 16.93079664398578 14.63711037056154 36.61987165460852
1054 3 16.93079664398578 17.07662876565512 7.042283010501638
1055 2 16.93079664398578 17.07662876565512 15.4930226231036
1056 5 16.93079664398578 17.07662876565512 32.39450184830753
1057 3 16.93079664398578 17.07662876565512 40.84524146090949
1058 5 16.93079664398578 17.07662876565513 23.94376223570556
1059 4 16.93079664398578 19.51614716074871 36.61987165460852
1060 5 16.93079664398578 19.51614716074871 11.26765281680262
1061 2 16.93079664398578 19.51614716074871 28.16913204200655
1062 2 16.93079664398578 19.51614716074872 19.71839242940458
1063 5 16.93079664398578 21.9556655558423 32.39450184830753
1064 3 16.93079664398578 21.9556655558423 7.042283010501635
1065 1 16.93079664398578 21.9556655558423 15.4930226231036
1066 5 16.93079664398578 21.9556655558423 23.94376223570556
1067 3 16.93079664398578 21.9556655558423 40.84524146090949
1068 3 16.93079664398578 24.39518395093589 2.816913204200654
1069 5 16.93079664398578 24.39518395093589 19.71839242940458
1070 2 16.93079664398578 24.39518395093589 36.61987165460852
1071 5 16.93079664398578 26.83470234602948 23.94376223570556
1072 3 16.93079664398578 26.83470234602948 7.042283010501638
1073 2 16.93079664398578 26.83470234602948 15.4930226231036
1074 1 16.93079664398578 26.83470234602948 32.39450184830753
1075 5 16.93079664398578 14.63711037056153 11.26765281680262
1076 5 16.93079664398578 19.51614716074871 2.816913204200654
1077 5 16.93079664398578 24.39518395093589 28.16913204200655
1078 3 16.93079664398578 24.39518395093589 11.26765281680262
1079 4 16.93079664398578 26.83470234602948 40.84524146090949
1080 5 17.92672585833788 0 0
1081 1 17.92672585833788 0 8.450739612601964
1082 5 17.92672585833788 0 16.90147922520393
1083 5 17.92672585833788 0 25.35221883780589
1084 4 17.92672585833788 0 33.80295845040786
1085 5 17.92672585833788 2.439518395093587 4.225369806300984
1086 2 17.92672585833788 2.439518395093587 29.57758864410687
1087 3 17.92672585833788 2.43951839509359 12.67610941890295
1088 4 17.92672585833788 2.43951839509359 21.12684903150491
1089 5 17.92672585833788 2.43951839509359 38.02832825670883
1090 2 17.92672585833788 4.879036790187177 0
1091 4 17.92672585833788 4.879036790187177 8.450739612601964
1092 4 17.92672585833788 4.879036790187177 25.35221883780589
1093 3 17.92672585833788 4.879036790187177 33.80295845040786
1094 5 17.92672585833788 4.879036790187181 16.90147922520393
1095 5 17.92672585833788 7.318555185280768 4.225369806300984
1096 2 17.92672585833788 7.318555185280768 12.67610941890295
1097 1 17.92672585833788 7.318555185280768 21.12684903150491
1098 5 17.92672585833788 7.318555185280768 29.57758864410687
1099 1 17.92672585833788 7.318555185280768 38.02832825670883
1100 4 17.92672585833788 9.758073580374354 16.90147922520393
1101 5 17.92672585833788 9.758073580374356 0
1102 1 17.92672585833788 9.758073580374358 8.450739612601964
1103 3 17.92672585833788 9.758073580374358 25.35221883780589
1104 2 17.92672585833788 9.758073580374358 33.80295845040786
1105 5 17.92672585833788 12.19759197546795 21.12684903150491
1106 4 17.92672585833788 12.19759197546795 38.02832825670883
1107 2 17.92672585833788 12.19759197546795 4.225369806300984
1108 4 17.92672585833788 14.63711037056154 0
1109 5 17.92672585833788 14.63711037056154 16.90147922520393
1110 1 17.92672585833788 14.63711037056154 25.3522188378059
1111 1 17.92672585833788 14.63711037056154 33.80295845040786
1112 5 17.92672585833788 17.07662876565512 29.57758864410687
1113 2 17.92672585833788 17.07662876565512 38.02832825670883
1114 3 17.92672585833788 17.07662876565513 21.12684903150491
1115 5 17.92672585833788 19.51614716074871 33.80295845040786
1116 1 17.92672585833788 19.51614716074871 8.450739612601964
1117 3 17.92672585833788 19.51614716074871 25.35221883780589
1118 1 17.92672585833788 19.51614716074872 16.90147922520393
1119 2 17.92672585833788 21.9556655558423 21.12684903150491
1120 2 17.92672585833788 21.9556655558423 38.02832825670883
1121 1 17.92672585833788 24.39518395093589 16.90147922520393
1122 4 17.92672585833788 24.39518395093589 42.25369806300982
1123 4 17.92672585833788 24.39518395093589 33.80295845040786
1124 3 17.92672585833788 26.83470234602948 21.12684903150491
1125 5 17.92672585833788 12.19759197546795 12.67610941890295
1126 4 17.92672585833788 12.19759197546795 29.57758864410687
1127 1 17.92672585833788 14.63711037056153 8.450739612601964
1128 3 17.92672585833788 17.07662876565512 4.225369806300984
1129 2 17.92672585833788 17.07662876565512 12.67610941890295
1130 1 17.92672585833788 19.51614716074871 42.25369806300982
1131 5 17.92672585833788 21.9556655558423 29.57758864410687
1132 2 17.92672585833788 21.9556655558423 4.225369806300981
1133 3 17.92672585833788 21.9556655558423 12.67610941890295
1134 5 17.92672585833788 24.39518395093589 25.35221883780589
1135 1 17.92672585833788 24.39518395093589 8.450739612601964
1136 5 17.92672585833788 26.83470234602948 4.225369806300984
1137 5 17.92672585833788 26.83470234602948 12.67610941890295
1138 5 17.92672585833788 26.83470234602948 38.02832825670883
1139 5 17.92672585833788 26.83470234602948 29.57758864410687
1140 2 18.92265507268998 0 5.633826408401311
1141 3 18.92265507268998 0 22.53530563360524
1142 1 18.92265507268998 0 39.43678485880917
1143 4 18.92265507268998 2.439518395093587 1.408456602100327
1144 5 18.92265507268998 2.439518395093587 26.76067543990622
1145 1 18.92265507268998 2.43951839509359 9.859196214702292
1146 2 18.92265507268998 2.43951839509359 18.30993582730426
1147 2 18.92265507268998 2.43951839509359 35.21141505250818
1148 5 18.92265507268998 4.879036790187177 5.633826408401311
1149 2 18.92265507268998 4.879036790187177 22.53530563360524
1150 1 18.92265507268998 4.879036790187177 30.9860452462072
1151 5 18.92265507268998 7.318555185280768 1.408456602100327
1152 1 18.92265507268998 7.318555185280768 9.859196214702292
1153 2 18.92265507268998 7.318555185280768 18.30993582730426
1154 1 18.92265507268998 7.318555185280768 26.76067543990622
1155 2 18.92265507268998 7.318555185280768 35.21141505250818
1156 2 18.92265507268998 9.758073580374354 39.43678485880917
1157 2 18.92265507268998 9.758073580374358 22.53530563360524
1158 2 18.92265507268998 12.19759197546795 18.30993582730426
1159 4 18.92265507268998 12.19759197546795 35.21141505250818
1160 1 18.92265507268998 12.19759197546795 1.408456602100327
1161 3 18.92265507268998 14.63711037056154 22.53530563360524
1162 3 18.92265507268998 17.07662876565512 26.76067543990622
1163 5 18.92265507268998 17.07662876565512 35.21141505250818
1164 1 18.92265507268998 17.07662876565513 18.30993582730426
1165 4 18.92265507268998 19.51614716074871 22.53530563360524
1166 3 18.92265507268998 19.51614716074872 39.43678485880917
1167 2 18.92265507268998 21.9556655558423 18.30993582730426
1168 4 18.92265507268998 21.9556655558423 35.21141505250818
1169 5 18.92265507268998 26.83470234602948 18.30993582730426
1170 3 18.92265507268999 0 14.08456602100327
1171 1 18.92265507268999 0 30.9860452462072
1172 1 18.92265507268999 4.879036790187181 14.08456602100327
1173 1 18.92265507268999 4.879036790187181 39.43678485880917
1174 3 18.92265507268999 9.758073580374354 14.08456602100327
1175 4 18.92265507268999 9.758073580374358 5.633826408401311
1176 3 18.92265507268999 9.758073580374358 30.9860452462072
1177 2 18.92265507268999 12.19759197546795 9.859196214702292
1178 4 18.92265507268999 12.19759197546795 26.76067543990622
1179 5 18.92265507268999 14.63711037056153 39.43678485880917
1180 4 18.92265507268999 14.63711037056153 5.633826408401311
1181 1 18.92265507268999 14.63711037056154 14.08456602100327
1182 3 18.92265507268999 14.63711037056154 30.9860452462072
1183 2 18.92265507268999 17.07662876565512 1.408456602100327
1184 4 18.92265507268999 17.07662876565512 9.859196214702292
1185 5 18.92265507268999 19.51614716074871 30.9860452462072
1186 3 18.92265507268999 19.51614716074871 5.633826408401311
1187 2 18.92265507268999 19.51614716074872 14.08456602100327
1188 1 18.92265507268999 21.9556655558423 26.76067543990622
1189 1 18.92265507268999 21.9556655558423 1.408456602100325
1190 3 18.92265507268999 21.9556655558423 9.859196214702292
1191 2 18.92265507268999 24.39518395093589 14.08456602100327
1192 2 18.92265507268999 24.39518395093589 22.53530563360524
1193 3 18.92265507268999 24.39518395093589 39.43678485880917
1194 5 18.92265507268999 24.39518395093589 5.633826408401311
1195 4 18.92265507268999 24.39518395093589 30.9860452462072
1196 5 18.92265507268999 26.83470234602948 1.408456602100327
1197 5 18.92265507268999 26.83470234602948 9.859196214702292
1198 2 18.92265507268999 26.83470234602948 26.76067543990622
1199 1 18.92265507268999 26.83470234602948 35.21141505250818
1200 2 19.91858428704209 0 2.816913204200654
1201 2 19.91858428704209 0 19.71839242940458
1202 3 19.91858428704209 0 36.61987165460851
1203 4 19.91858428704209 2.439518395093587 23.94376223570556
1204 3 19.91858428704209 4.879036790187177 2.816913204200654
1205 1 19.91858428704209 4.879036790187177 19.71839242940458
1206 3 19.91858428704209 4.879036790187177 28.16913204200655
1207 4 19.91858428704209 7.318555185280768 23.94376223570556
1208 2 19.91858428704209 9.758073580374354 36.61987165460852
1209 4 19.91858428704209 9.758073580374358 19.71839242940458
1210 5 19.91858428704209 14.63711037056154 19.71839242940459
1211 3 19.91858428704209 17.07662876565512 23.94376223570556
1212 2 19.91858428704209 19.51614716074871 19.71839242940458
1213 4 19.91858428704209 19.51614716074872 36.61987165460852
1214 3 19.91858428704209 0 11.26765281680262
1215 1 19.91858428704209 0 28.16913204200655
1216 3 19.91858428704209 2.43951839509359 7.042283010501638
1217 5 19.91858428704209 2.43951839509359 15.4930226231036
1218 5 19.91858428704209 2.43951839509359 32.39450184830753
1219 2 19.91858428704209 2.43951839509359 40.84524146090949
1220 3 19.91858428704209 4.879036790187181 11.26765281680262
1221 4 19.91858428704209 7.318555185280768 7.042283010501638
1222 3 19.91858428704209 7.318555185280768 15.4930226231036
1223 2 19.91858428704209 7.318555185280768 32.39450184830753
1224 5 19.91858428704209 7.318555185280768 40.84524146090949
1225 5 19.91858428704209 9.758073580374354 11.26765281680262
1226 1 19.91858428704209 9.758073580374358 2.816913204200654
1227 1 19.91858428704209 9.758073580374358 28.16913204200655
1228 2 19.91858428704209 12.19759197546794 40.84524146090949
1229 2 19.91858428704209 12.19759197546795 7.042283010501638
1230 4 19.91858428704209 12.19759197546795 15.4930226231036
1231 1 19.91858428704209 12.19759197546795 32.39450184830753
1232 1 19.91858428704209 12.19759197546795 23.94376223570556
1233 5 19.91858428704209 14.63711037056154 11.26765281680262
1234 3 19.91858428704209 14.63711037056154 28.16913204200655
1235 1 19.91858428704209 17.07662876565512 7.042283010501638
1236 3 19.91858428704209 17.07662876565512 32.39450184830753
1237 1 19.91858428704209 17.07662876565513 15.4930226231036
1238 5 19.91858428704209 17.07662876565513 40.84524146090949
1239 3 19.91858428704209 19.51614716074871 28.16913204200655
1240 3 19.91858428704209 19.51614716074871 2.816913204200654
1241 5 19.91858428704209 19.51614716074872 11.26765281680262
1242 5 19.91858428704209 21.9556655558423 23.94376223570556
1243 5 19.91858428704209 21.9556655558423 7.042283010501638
1244 1 19.91858428704209 21.9556655558423 15.4930226231036
1245 5 19.91858428704209 21.9556655558423 32.39450184830753
1246 4 19.91858428704209 21.9556655558423 40.84524146090949
1247 3 19.91858428704209 24.39518395093589 11.26765281680262
1248 3 19.91858428704209 24.39518395093589 28.16913204200655
1249 2 19.91858428704209 26.83470234602948 15.4930226231036
1250 1 19.91858428704209 26.83470234602948 40.84524146090949
1251 5 19.91858428704209 26.83470234602948 7.042283010501638
1252 1 19.91858428704209 26.83470234602948 23.94376223570556
1253 3 19.91858428704209 4.879036790187181 36.61987165460852
1254 1 19.91858428704209 14.63711037056153 36.61987165460852
1255 1 19.91858428704209 14.63711037056153 2.816913204200654
1256 5 19.91858428704209 24.39518395093589 19.71839242940458
1257 2 19.91858428704209 24.39518395093589 36.61987165460852
1258 4 19.91858428704209 24.39518395093589 2.816913204200654
1259 3 19.91858428704209 26.83470234602948 32.39450184830753
1260 3 20.91451350139419 2.439518395093587 21.12684903150491
1261 1 20.91451350139419 4.879036790187177 25.35221883780589
1262 1 20.91451350139419 7.318555185280768 21.12684903150491
1263 4 20.91451350139419 17.07662876565512 21.12684903150491
1264 5 20.91451350139419 0 0
1265 4 20.91451350139419 0 8.450739612601964
1266 2 20.91451350139419 0 16.90147922520393
1267 5 20.91451350139419 0 25.35221883780589
1268 4 20.91451350139419 0 33.80295845040786
1269 1 20.91451350139419 2.43951839509359 4.225369806300981
1270 4 20.91451350139419 2.43951839509359 12.67610941890295
1271 4 20.91451350139419 2.43951839509359 29.57758864410687
1272 4 20.91451350139419 4.879036790187177 0
1273 1 20.91451350139419 4.879036790187177 16.90147922520393
1274 2 20.91451350139419 4.879036790187181 8.450739612601964
1275 3 20.91451350139419 7.318555185280768 4.225369806300981
1276 4 20.91451350139419 7.318555185280768 12.67610941890295
1277 4 20.91451350139419 7.318555185280768 29.57758864410687
1278 2 20.91451350139419 9.758073580374354 8.450739612601964
1279 5 20.91451350139419 9.758073580374354 33.80295845040786
1280 5 20.91451350139419 9.758073580374358 0
1281 5 20.91451350139419 9.758073580374358 16.90147922520393
1282 1 20.91451350139419 9.758073580374358 25.3522188378059
1283 5 20.91451350139419 12.19759197546795 12.67610941890295
1284 1 20.91451350139419 12.19759197546795 29.57758864410687
1285 2 20.91451350139419 14.63711037056154 8.450739612601964
1286 4 20.91451350139419 14.63711037056154 16.90147922520393
1287 3 20.91451350139419 14.63711037056154 25.3522188378059
1288 4 20.91451350139419 17.07662876565512 29.57758864410687
1289 5 20.91451350139419 17.07662876565513 12.67610941890295
1290 4 20.91451350139419 19.51614716074871 25.3522188378059
1291 5 20.91451350139419 19.51614716074871 0
1292 2 20.91451350139419 19.51614716074871 16.90147922520393
1293 5 20.91451350139419 19.51614716074872 8.450739612601964
1294 2 20.91451350139419 19.51614716074872 33.80295845040786
1295 5 20.91451350139419 21.9556655558423 12.67610941890295
1296 5 20.91451350139419 21.9556655558423 29.57758864410687
1297 5 20.91451350139419 24.39518395093589 8.450739612601964
1298 5 20.91451350139419 24.39518395093589 25.35221883780589
1299 4 20.91451350139419 26.83470234602948 12.67610941890295
1300 5 20.9145135013942 2.43951839509359 38.02832825670883
1301 3 20.9145135013942 4.879036790187181 33.80295845040786
1302 2 20.9145135013942 7.318555185280768 38.02832825670883
1303 1 20.9145135013942 12.19759197546794 38.02832825670883
1304 2 20.9145135013942 12.19759197546795 4.225369806300981
1305 2 20.9145135013942 12.19759197546795 21.12684903150491
1306 2 20.9145135013942 14.63711037056153 33.80295845040786
1307 3 20.9145135013942 14.63711037056153 0
1308 2 20.9145135013942 17.07662876565512 4.225369806300981
1309 1 20.9145135013942 17.07662876565513 38.02832825670883
1310 1 20.9145135013942 21.9556655558423 21.12684903150491
1311 5 20.9145135013942 21.9556655558423 4.225369806300981
1312 2 20.9145135013942 21.9556655558423 38.02832825670883
1313 1 20.9145135013942 24.39518395093589 16.90147922520393
1314 4 20.9145135013942 24.39518395093589 33.80295845040786
1315 4 20.9145135013942 24.39518395093589 0
1316 1 20.9145135013942 26.83470234602948 38.02832825670883
1317 4 20.9145135013942 26.83470234602948 4.225369806300981
1318 4 20.9145135013942 26.83470234602948 29.57758864410687
1319 4 20.9145135013942 26.83470234602948 21.12684903150491
1320 3 21.9104427157463 4.879036790187177 22.53530563360524
1321 1 21.9104427157463 0 14.08456602100327
1322 5 21.9104427157463 0 30.9860452462072
1323 1 21.9104427157463 2.439518395093587 18.30993582730425
1324 3 21.9104427157463 2.43951839509359 1.408456602100327
1325 5 21.9104427157463 2.43951839509359 9.859196214702292
1326 1 21.9104427157463 2.43951839509359 26.76067543990622
1327 2 21.9104427157463 4.879036790187177 14.08456602100327
1328 5 21.9104427157463 7.318555185280768 1.408456602100327
1329 1 21.9104427157463 7.318555185280768 9.859196214702292
1330 1 21.9104427157463 7.318555185280768 18.30993582730425
1331 4 21.9104427157463 7.318555185280768 26.76067543990622
1332 1 21.9104427157463 9.758073580374354 30.9860452462072
1333 2 21.9104427157463 9.758073580374358 14.08456602100327
1334 5 21.9104427157463 12.19759197546795 9.859196214702292
1335 3 21.9104427157463 12.19759197546795 26.76067543990622
1336 5 21.9104427157463 14.63711037056154 14.08456602100328
1337 1 21.9104427157463 17.07662876565512 18.30993582730425
1338 5 21.9104427157463 17.07662876565512 26.76067543990622
1339 2 21.9104427157463 17.07662876565513 9.859196214702292
1340 3 21.9104427157463 19.51614716074871 14.08456602100327
1341 4 21.9104427157463 19.51614716074872 30.9860452462072
1342 3 21.9104427157463 21.9556655558423 9.859196214702292
1343 5 21.9104427157463 21.9556655558423 26.76067543990622
1344 2 21.9104427157463 26.83470234602948 9.859196214702292
1345 5 21.9104427157463 0 5.633826408401308
1346 4 21.9104427157463 0 22.53530563360524
1347 3 21.9104427157463 0 39.43678485880917
1348 1 21.9104427157463 2.43951839509359 35.21141505250818
1349 3 21.9104427157463 4.879036790187177 39.43678485880917
1350 5 21.9104427157463 4.879036790187181 5.633826408401308
1351 3 21.9104427157463 4.879036790187181 30.9860452462072
1352 1 21.9104427157463 7.318555185280768 35.21141505250818
1353 5 21.9104427157463 9.758073580374354 5.633826408401308
1354 1 21.9104427157463 9.758073580374354 39.43678485880917
1355 2 21.9104427157463 9.758073580374358 22.53530563360524
1356 3 21.9104427157463 12.19759197546794 35.21141505250818
1357 1 21.9104427157463 12.19759197546795 1.408456602100327
1358 3 21.9104427157463 12.19759197546795 18.30993582730425
1359 1 21.9104427157463 14.63711037056153 30.9860452462072
1360 5 21.9104427157463 14.63711037056154 5.633826408401308
1361 3 21.9104427157463 14.63711037056154 22.53530563360524
1362 3 21.9104427157463 14.63711037056154 39.43678485880917
1363 5 21.9104427157463 17.07662876565512 1.408456602100327
1364 2 21.9104427157463 17.07662876565513 35.21141505250818
1365 5 21.9104427157463 19.51614716074871 22.53530563360524
1366 2 21.9104427157463 19.51614716074871 39.43678485880917
1367 2 21.9104427157463 19.51614716074872 5.633826408401308
1368 4 21.9104427157463 21.9556655558423 18.30993582730425
1369 3 21.9104427157463 21.9556655558423 1.408456602100327
1370 1 21.9104427157463 21.9556655558423 35.21141505250818
1371 2 21.9104427157463 24.39518395093589 5.633826408401308
1372 3 21.9104427157463 24.39518395093589 14.08456602100327
1373 2 21.9104427157463 24.39518395093589 30.9860452462072
1374 1 21.9104427157463 24.39518395093589 39.43678485880917
1375 3 21.9104427157463 24.39518395093589 22.53530563360524
1376 4 21.9104427157463 26.83470234602948 35.21141505250818
1377 5 21.9104427157463 26.83470234602948 1.408456602100327
1378 4 21.9104427157463 26.83470234602948 26.76067543990622
1379 4 21.9104427157463 26.83470234602948 18.30993582730425
1380 5 22.9063719300984 0 11.26765281680262
1381 2 22.9063719300984 0 28.16913204200655
1382 4 22.9063719300984 2.439518395093587 15.4930226231036
1383 3 22.9063719300984 4.879036790187177 11.26765281680262
1384 3 22.9063719300984 4.879036790187177 19.71839242940458
1385 4 22.9063719300984 7.318555185280768 15.4930226231036
1386 3 22.9063719300984 9.758073580374354 28.16913204200655
1387 2 22.9063719300984 9.758073580374358 11.26765281680262
1388 4 22.9063719300984 14.63711037056154 11.26765281680262
1389 1 22.9063719300984 17.07662876565512 15.4930226231036
1390 2 22.9063719300984 19.51614716074871 11.26765281680262
1391 3 22.9063719300984 19.51614716074872 28.16913204200655
1392 2 22.90637193009841 0 2.816913204200654
1393 3 22.90637193009841 0 19.71839242940458
1394 5 22.90637193009841 0 36.61987165460852
1395 5 22.90637193009841 2.439518395093587 40.84524146090949
1396 4 22.90637193009841 2.43951839509359 7.042283010501635
1397 3 22.90637193009841 2.43951839509359 23.94376223570556
1398 4 22.90637193009841 2.43951839509359 32.39450184830753
1399 1 22.90637193009841 4.879036790187177 36.61987165460852
1400 5 22.90637193009841 4.879036790187181 2.816913204200654
1401 1 22.90637193009841 4.879036790187181 28.16913204200655
1402 5 22.90637193009841 7.318555185280764 40.84524146090949
1403 4 22.90637193009841 7.318555185280768 7.042283010501635
1404 2 22.90637193009841 7.318555185280768 23.94376223570556
1405 4 22.90637193009841 7.318555185280768 32.39450184830753
1406 5 22.90637193009841 9.758073580374354 2.816913204200654
1407 1 22.90637193009841 9.758073580374354 36.61987165460852
1408 1 22.90637193009841 9.758073580374358 19.71839242940458
1409 2 22.90637193009841 12.19759197546794 32.39450184830753
1410 4 22.90637193009841 12.19759197546795 7.042283010501635
1411 1 22.90637193009841 12.19759197546795 23.94376223570556
1412 1 22.90637193009841 12.19759197546795 15.4930226231036
1413 4 22.90637193009841 12.19759197546795 40.84524146090949
1414 1 22.90637193009841 14.63711037056153 28.16913204200655
1415 5 22.90637193009841 14.63711037056154 2.816913204200654
1416 2 22.90637193009841 14.63711037056154 19.71839242940458
1417 5 22.90637193009841 14.63711037056154 36.61987165460852
1418 4 22.90637193009841 17.07662876565512 23.94376223570556
1419 5 22.90637193009841 17.07662876565512 40.84524146090949
1420 3 22.90637193009841 17.07662876565513 7.042283010501635
1421 2 22.90637193009841 17.07662876565513 32.39450184830753
1422 3 22.90637193009841 19.51614716074871 19.71839242940458
1423 5 22.90637193009841 19.51614716074871 36.61987165460852
1424 2 22.90637193009841 19.51614716074872 2.816913204200654
1425 1 22.90637193009841 21.9556655558423 15.4930226231036
1426 4 22.90637193009841 21.9556655558423 40.84524146090949
1427 2 22.90637193009841 21.9556655558423 7.042283010501635
1428 2 22.90637193009841 21.9556655558423 23.94376223570556
1429 3 22.90637193009841 21.9556655558423 32.39450184830753
1430 2 22.90637193009841 24.39518395093589 2.816913204200654
1431 2 22.90637193009841 24.39518395093589 11.26765281680262
1432 1 22.90637193009841 24.39518395093589 28.16913204200655
1433 1 22.90637193009841 24.39518395093589 36.61987165460852
1434 5 22.90637193009841 24.39518395093589 19.71839242940458
1435 5 22.90637193009841 26.83470234602948 7.042283010501635
1436 2 22.90637193009841 26.83470234602948 32.39450184830753
1437 5 22.90637193009841 26.83470234602948 23.94376223570556
1438 2 22.90637193009841 26.83470234602948 15.4930226231036
1439 5 22.90637193009841 26.83470234602948 40.84524146090949
1440 1 23.9023011444505 2.439518395093587 12.67610941890295
1441 5 23.9023011444505 4.879036790187177 16.90147922520393
1442 2 23.9023011444505 7.318555185280768 12.67610941890295
1443 3 23.9023011444505 17.07662876565512 12.67610941890295
1444 4 23.90230114445051 0 0
1445 4 23.90230114445051 0 8.450739612601962
1446 1 23.90230114445051 0 16.90147922520393
1447 2 23.90230114445051 0 25.35221883780589
1448 1 23.90230114445051 0 33.80295845040786
1449 1 23.90230114445051 2.439518395093587 38.02832825670884
1450 5 23.90230114445051 2.43951839509359 4.225369806300981
1451 2 23.90230114445051 2.43951839509359 21.12684903150491
1452 4 23.90230114445051 2.43951839509359 29.57758864410687
1453 1 23.90230114445051 4.879036790187177 8.450739612601962
1454 4 23.90230114445051 4.879036790187177 33.80295845040786
1455 5 23.90230114445051 4.879036790187181 0
1456 5 23.90230114445051 4.879036790187181 25.3522188378059
1457 1 23.90230114445051 7.318555185280764 38.02832825670883
1458 3 23.90230114445051 7.318555185280768 4.225369806300981
1459 3 23.90230114445051 7.318555185280768 21.12684903150491
1460 2 23.90230114445051 7.318555185280768 29.57758864410687
1461 1 23.90230114445051 9.758073580374354 0
1462 2 23.90230114445051 9.758073580374354 25.3522188378059
1463 5 23.90230114445051 9.758073580374354 33.80295845040786
1464 5 23.90230114445051 9.758073580374358 8.450739612601962
1465 2 23.90230114445051 9.758073580374358 16.90147922520393
1466 5 23.90230114445051 12.19759197546794 29.57758864410687
1467 3 23.90230114445051 12.19759197546795 4.225369806300981
1468 3 23.90230114445051 12.19759197546795 21.12684903150491
1469 3 23.90230114445051 12.19759197546795 12.67610941890295
1470 1 23.90230114445051 12.19759197546795 38.02832825670883
1471 2 23.90230114445051 14.63711037056153 25.3522188378059
1472 1 23.90230114445051 14.63711037056154 0
1473 1 23.90230114445051 14.63711037056154 8.450739612601968
1474 1 23.90230114445051 14.63711037056154 16.90147922520393
1475 3 23.90230114445051 14.63711037056154 33.80295845040786
1476 5 23.90230114445051 17.07662876565512 21.12684903150491
1477 3 23.90230114445051 17.07662876565512 38.02832825670883
1478 1 23.90230114445051 17.07662876565513 4.225369806300981
1479 4 23.90230114445051 17.07662876565513 29.57758864410687
1480 5 23.90230114445051 19.51614716074871 16.90147922520393
1481 4 23.90230114445051 19.51614716074871 8.450739612601962
1482 4 23.90230114445051 19.51614716074871 33.80295845040786
1483 3 23.90230114445051 19.51614716074872 0
1484 2 23.90230114445051 19.51614716074872 25.3522188378059
1485 5 23.90230114445051 21.9556655558423 12.67610941890295
1486 3 23.90230114445051 21.9556655558423 38.02832825670883
1487 2 23.90230114445051 21.9556655558423 4.225369806300981
1488 3 23.90230114445051 21.9556655558423 21.12684903150491
1489 2 23.90230114445051 21.9556655558423 29.57758864410687
1490 5 23.90230114445051 24.39518395093589 0
1491 5 23.90230114445051 24.39518395093589 8.450739612601962
1492 4 23.90230114445051 24.39518395093589 25.3522188378059
1493 5 23.90230114445051 24.39518395093589 33.80295845040786
1494 1 23.90230114445051 24.39518395093589 16.90147922520393
1495 5 23.90230114445051 26.83470234602948 4.225369806300981
1496 3 23.90230114445051 26.83470234602948 29.57758864410687
1497 2 23.90230114445051 26.83470234602948 12.67610941890295
1498 1 23.90230114445051 26.83470234602948 38.02832825670883
1499 2 23.90230114445051 26.83470234602948 21.12684903150491
1500 3 24.89823035880261 4.879036790187177 14.08456602100327
1501 3 24.89823035880261 0 5.633826408401308
1502 5 24.89823035880261 0 14.08456602100327
1503 3 24.89823035880261 0 22.53530563360523
1504 1 24.89823035880261 0 30.9860452462072
1505 5 24.89823035880261 0 39.43678485880917
1506 4 24.89823035880261 2.439518395093587 9.859196214702289
1507 3 24.89823035880261 2.439518395093587 35.21141505250819
1508 5 24.89823035880261 2.43951839509359 1.408456602100327
1509 1 24.89823035880261 2.43951839509359 18.30993582730425
1510 5 24.89823035880261 2.43951839509359 26.76067543990622
1511 5 24.89823035880261 4.879036790187174 39.43678485880917
1512 4 24.89823035880261 4.879036790187177 5.633826408401308
1513 3 24.89823035880261 4.879036790187177 30.9860452462072
1514 1 24.89823035880261 7.318555185280764 35.21141505250818
1515 5 24.89823035880261 7.318555185280768 1.408456602100327
1516 1 24.89823035880261 7.318555185280768 9.859196214702289
1517 3 24.89823035880261 7.318555185280768 18.30993582730425
1518 4 24.89823035880261 7.318555185280768 26.76067543990622
1519 5 24.89823035880261 9.758073580374354 22.53530563360524
1520 1 24.89823035880261 9.758073580374354 30.9860452462072
1521 3 24.89823035880261 9.758073580374358 5.633826408401308
1522 1 24.89823035880261 9.758073580374358 14.08456602100328
1523 1 24.89823035880261 9.758073580374358 39.43678485880917
1524 1 24.89823035880261 12.19759197546794 26.76067543990622
1525 1 24.89823035880261 12.19759197546795 1.408456602100327
1526 5 24.89823035880261 12.19759197546795 18.30993582730425
1527 3 24.89823035880261 12.19759197546795 9.859196214702289
1528 1 24.89823035880261 12.19759197546795 35.21141505250818
1529 5 24.89823035880261 14.63711037056154 5.633826408401313
1530 2 24.89823035880261 14.63711037056154 14.08456602100328
1531 2 24.89823035880261 14.63711037056154 30.9860452462072
1532 2 24.89823035880261 14.63711037056154 39.43678485880917
1533 4 24.89823035880261 17.07662876565512 9.859196214702289
1534 2 24.89823035880261 17.07662876565512 18.30993582730425
1535 4 24.89823035880261 17.07662876565512 35.21141505250818
1536 1 24.89823035880261 17.07662876565513 1.408456602100327
1537 4 24.89823035880261 17.07662876565513 26.76067543990622
1538 1 24.89823035880261 19.51614716074871 14.08456602100328
1539 5 24.89823035880261 19.51614716074871 39.43678485880917
1540 5 24.89823035880261 19.51614716074871 5.633826408401308
1541 3 24.89823035880261 19.51614716074871 30.9860452462072
1542 4 24.89823035880261 19.51614716074872 22.53530563360524
1543 1 24.89823035880261 21.9556655558423 9.859196214702289
1544 5 24.89823035880261 21.9556655558423 35.21141505250818
1545 4 24.89823035880261 21.9556655558423 1.408456602100327
1546 1 24.89823035880261 21.9556655558423 18.30993582730425
1547 1 24.89823035880261 21.9556655558423 26.76067543990622
1548 4 24.89823035880261 24.39518395093589 30.9860452462072
1549 3 24.89823035880261 24.39518395093589 14.08456602100327
1550 5 24.89823035880261 24.39518395093589 39.43678485880917
1551 2 24.89823035880261 26.83470234602948 1.408456602100327
1552 1 24.89823035880261 26.83470234602948 26.76067543990622
1553 2 24.89823035880261 26.83470234602948 9.859196214702289
1554 3 24.89823035880261 26.83470234602948 35.21141505250818
1555 1 24.89823035880262 4.879036790187181 22.53530563360524
1556 5 24.89823035880262 14.63711037056153 22.53530563360524
1557 5 24.89823035880262 24.39518395093589 5.633826408401308
1558 4 24.89823035880262 24.39518395093589 22.53530563360524
1559 2 24.89823035880262 26.83470234602948 18.30993582730425
1560 3 25.89415957315472 0 2.816913204200654
1561 1 25.89415957315472 0 11.26765281680262
1562 1 25.89415957315472 0 19.71839242940458
1563 1 25.89415957315472 0 28.16913204200655
1564 2 25.89415957315472 0 36.61987165460852
1565 1 25.89415957315472 2.439518395093587 7.042283010501635
1566 1 25.89415957315472 2.439518395093587 32.39450184830753
1567 5 25.89415957315472 2.439518395093587 40.84524146090949
1568 2 25.89415957315472 2.43951839509359 15.4930226231036
1569 3 25.89415957315472 4.879036790187174 36.61987165460852
1570 1 25.89415957315472 4.879036790187177 2.816913204200654
1571 5 25.89415957315472 4.879036790187177 11.26765281680262
1572 3 25.89415957315472 4.879036790187177 28.16913204200655
1573 1 25.89415957315472 7.318555185280764 32.39450184830753
1574 5 25.89415957315472 7.318555185280768 7.042283010501635
1575 1 25.89415957315472 7.318555185280768 15.4930226231036
1576 5 25.89415957315472 7.318555185280768 40.84524146090949
1577 1 25.89415957315472 9.758073580374354 19.71839242940458
1578 4 25.89415957315472 9.758073580374354 28.16913204200655
1579 2 25.89415957315472 9.758073580374358 2.816913204200654
1580 1 25.89415957315472 9.758073580374358 11.26765281680262
1581 3 25.89415957315472 9.758073580374358 36.61987165460852
1582 4 25.89415957315472 12.19759197546795 15.4930226231036
1583 4 25.89415957315472 12.19759197546795 40.84524146090949
1584 3 25.89415957315472 12.19759197546795 32.39450184830753
1585 5 25.89415957315472 14.63711037056154 2.816913204200659
1586 1 25.89415957315472 14.63711037056154 11.26765281680262
1587 4 25.89415957315472 14.63711037056154 28.16913204200655
1588 2 25.89415957315472 14.63711037056154 36.61987165460852
1589 1 25.89415957315472 17.07662876565512 7.042283010501635
1590 4 25.89415957315472 17.07662876565512 15.4930226231036
1591 3 25.89415957315472 17.07662876565512 32.39450184830753
1592 5 25.89415957315472 19.51614716074871 11.26765281680262
1593 3 25.89415957315472 19.51614716074871 36.61987165460852
1594 1 25.89415957315472 19.51614716074871 2.816913204200654
1595 2 25.89415957315472 19.51614716074871 28.16913204200655
1596 1 25.89415957315472 19.51614716074872 19.71839242940458
1597 4 25.89415957315472 21.9556655558423 32.39450184830753
1598 4 25.89415957315472 21.9556655558423 15.4930226231036
1599 4 25.89415957315472 21.9556655558423 40.84524146090949
1600 2 25.89415957315472 24.39518395093589 28.16913204200655
1601 4 25.89415957315472 24.39518395093589 11.26765281680262
1602 1 25.89415957315472 24.39518395093589 36.61987165460852
1603 3 25.89415957315472 26.83470234602948 40.84524146090949
1604 3 25.89415957315472 26.83470234602948 32.39450184830753
1605 4 25.89415957315472 2.43951839509359 23.94376223570556
1606 1 25.89415957315472 4.879036790187181 19.71839242940458
1607 5 25.89415957315472 7.318555185280768 23.94376223570556
1608 4 25.89415957315472 12.19759197546794 23.94376223570556
1609 2 25.89415957315472 12.19759197546795 7.042283010501635
1610 3 25.89415957315472 14.63711037056153 19.71839242940458
1611 5 25.89415957315472 17.07662876565512 40.84524146090949
1612 4 25.89415957315472 17.07662876565513 23.94376223570556
1613 2 25.89415957315472 21.9556655558423 7.042283010501635
1614 5 25.89415957315472 21.9556655558423 23.94376223570556
1615 3 25.89415957315472 24.39518395093589 2.816913204200654
1616 3 25.89415957315472 24.39518395093589 19.71839242940458
1617 4 25.89415957315472 26.83470234602948 23.94376223570556
1618 4 25.89415957315472 26.83470234602948 15.4930226231036
1619 2 25.89415957315472 26.83470234602948 7.042283010501635
1620 3 26.89008878750682 0 0
1621 5 26.89008878750682 0 16.90147922520393
1622 4 26.89008878750682 0 33.80295845040786
1623 2 26.89008878750682 2.439518395093587 4.225369806300981
1624 5 26.89008878750682 2.439518395093587 29.57758864410688
1625 3 26.89008878750682 2.439518395093587 38.02832825670884
1626 5 26.89008878750682 2.43951839509359 12.67610941890294
1627 5 26.89008878750682 4.879036790187174 33.80295845040786
1628 1 26.89008878750682 4.879036790187177 0
1629 4 26.89008878750682 4.879036790187177 8.450739612601962
1630 5 26.89008878750682 7.318555185280764 29.57758864410687
1631 3 26.89008878750682 7.318555185280768 4.225369806300981
1632 3 26.89008878750682 7.318555185280768 12.67610941890294
1633 4 26.89008878750682 7.318555185280768 38.02832825670884
1634 2 26.89008878750682 9.758073580374354 16.90147922520393
1635 4 26.89008878750682 9.758073580374358 0
1636 2 26.89008878750682 9.758073580374358 33.80295845040786
1637 3 26.89008878750682 12.19759197546795 12.67610941890294
1638 4 26.89008878750682 12.19759197546795 38.02832825670883
1639 5 26.89008878750682 12.19759197546795 29.57758864410687
1640 5 26.89008878750682 14.63711037056154 4.691102846511288e-15
1641 3 26.89008878750682 14.63711037056154 33.80295845040786
1642 3 26.89008878750682 17.07662876565512 4.225369806300981
1643 4 26.89008878750682 17.07662876565512 12.67610941890294
1644 2 26.89008878750682 17.07662876565512 29.57758864410687
1645 2 26.89008878750682 19.51614716074871 33.80295845040786
1646 1 26.89008878750682 19.51614716074871 0
1647 2 26.89008878750682 19.51614716074872 16.90147922520393
1648 1 26.89008878750682 21.9556655558423 29.57758864410687
1649 3 26.89008878750682 21.9556655558423 12.67610941890294
1650 4 26.89008878750682 21.9556655558423 38.02832825670883
1651 4 26.89008878750682 24.39518395093589 33.80295845040786
1652 5 26.89008878750682 26.83470234602948 38.02832825670883
1653 1 26.89008878750682 26.83470234602948 29.57758864410687
1654 3 26.89008878750682 0 8.450739612601962
1655 5 26.89008878750682 0 25.3522188378059
1656 5 26.89008878750682 2.43951839509359 21.12684903150491
1657 4 26.89008878750682 4.879036790187177 25.3522188378059
1658 1 26.89008878750682 4.879036790187181 16.90147922520393
1659 4 26.89008878750682 7.318555185280768 21.12684903150491
1660 1 26.89008878750682 9.758073580374354 25.3522188378059
1661 2 26.89008878750682 9.758073580374358 8.450739612601968
1662 3 26.89008878750682 12.19759197546794 21.12684903150491
1663 3 26.89008878750682 12.19759197546795 4.225369806300981
1664 5 26.89008878750682 14.63711037056153 16.90147922520393
1665 3 26.89008878750682 14.63711037056154 8.450739612601968
1666 3 26.89008878750682 14.63711037056154 25.3522188378059
1667 5 26.89008878750682 17.07662876565512 38.02832825670883
1668 5 26.89008878750682 17.07662876565513 21.12684903150491
1669 1 26.89008878750682 19.51614716074871 8.450739612601968
1670 2 26.89008878750682 19.51614716074871 25.3522188378059
1671 3 26.89008878750682 21.9556655558423 4.225369806300981
1672 5 26.89008878750682 21.9556655558423 21.12684903150491
1673 4 26.89008878750682 24.39518395093589 0
1674 5 26.89008878750682 24.39518395093589 16.90147922520393
1675 3 26.89008878750682 24.39518395093589 25.3522188378059
1676 3 26.89008878750682 24.39518395093589 8.450739612601962
1677 5 26.89008878750682 26.83470234602948 21.12684903150491
1678 4 26.89008878750682 26.83470234602948 4.225369806300981
1679 1 26.89008878750683 26.83470234602948 12.67610941890294
1680 4 27.88601800185892 0 14.08456602100327
1681 2 27.88601800185892 0 30.9860452462072
1682 5 27.88601800185892 0 39.43678485880917
1683 4 27.88601800185892 2.439518395093587 1.408456602100327
1684 4 27.88601800185892 2.439518395093587 35.21141505250819
1685 5 27.88601800185892 4.879036790187174 30.9860452462072
1686 4 27.88601800185892 4.879036790187177 5.633826408401308
1687 3 27.88601800185892 4.879036790187181 39.43678485880917
1688 3 27.88601800185892 7.318555185280768 1.408456602100327
1689 3 27.88601800185892 7.318555185280768 35.21141505250819
1690 1 27.88601800185892 9.758073580374354 14.08456602100328
1691 2 27.88601800185892 9.758073580374354 39.43678485880917
1692 2 27.88601800185892 9.758073580374358 30.9860452462072
1693 4 27.88601800185892 12.19759197546795 35.21141505250818
1694 5 27.88601800185892 14.63711037056154 30.9860452462072
1695 5 27.88601800185892 17.07662876565512 1.408456602100327
1696 5 27.88601800185892 19.51614716074871 30.9860452462072
1697 1 27.88601800185892 19.51614716074872 14.08456602100328
1698 4 27.88601800185892 21.9556655558423 35.21141505250818
1699 2 27.88601800185892 24.39518395093589 39.43678485880917
1700 5 27.88601800185892 24.39518395093589 30.9860452462072
1701 3 27.88601800185892 26.83470234602948 35.21141505250818
1702 1 27.88601800185893 0 5.633826408401308
1703 3 27.88601800185893 0 22.53530563360524
1704 4 27.88601800185893 2.439518395093587 26.76067543990622
1705 4 27.88601800185893 2.43951839509359 9.859196214702289
1706 1 27.88601800185893 2.43951839509359 18.30993582730425
1707 3 27.88601800185893 4.879036790187177 22.53530563360524
1708 2 27.88601800185893 7.318555185280764 26.76067543990622
1709 3 27.88601800185893 7.318555185280768 9.859196214702289
1710 2 27.88601800185893 7.318555185280768 18.30993582730425
1711 4 27.88601800185893 9.758073580374354 22.53530563360524
1712 1 27.88601800185893 9.758073580374358 5.633826408401313
1713 5 27.88601800185893 12.19759197546794 18.30993582730425
1714 3 27.88601800185893 12.19759197546795 9.859196214702289
1715 5 27.88601800185893 12.19759197546795 1.408456602100327
1716 1 27.88601800185893 12.19759197546795 26.76067543990622
1717 2 27.88601800185893 14.63711037056153 39.43678485880917
1718 5 27.88601800185893 14.63711037056154 5.633826408401313
1719 1 27.88601800185893 14.63711037056154 22.53530563360524
1720 5 27.88601800185893 17.07662876565512 9.859196214702289
1721 5 27.88601800185893 17.07662876565512 26.76067543990622
1722 2 27.88601800185893 17.07662876565512 35.21141505250818
1723 1 27.88601800185893 17.07662876565513 18.30993582730425
1724 5 27.88601800185893 19.51614716074871 5.633826408401313
1725 5 27.88601800185893 19.51614716074871 22.53530563360524
1726 2 27.88601800185893 19.51614716074872 39.43678485880917
1727 4 27.88601800185893 21.9556655558423 1.408456602100327
1728 5 27.88601800185893 21.9556655558423 26.76067543990622
1729 4 27.88601800185893 21.9556655558423 9.859196214702289
1730 5 27.88601800185893 21.9556655558423 18.30993582730425
1731 1 27.88601800185893 24.39518395093589 22.53530563360524
1732 3 27.88601800185893 24.39518395093589 5.633826408401308
1733 4 27.88601800185893 26.83470234602948 18.30993582730425
1734 5 27.88601800185893 26.83470234602948 1.408456602100327
1735 5 27.88601800185893 26.83470234602948 26.76067543990622
1736 5 27.88601800185893 4.879036790187181 14.08456602100328
1737 2 27.88601800185893 14.63711037056153 14.08456602100328
1738 3 27.88601800185893 24.39518395093589 14.08456602100328
1739 5 27.88601800185893 26.83470234602948 9.859196214702289
1740 2 28.88194721621103 0 36.61987165460852
1741 3 28.88194721621103 2.439518395093587 32.39450184830753
1742 3 28.88194721621103 2.439518395093593 40.84524146090949
1743 1 28.88194721621103 4.879036790187177 2.816913204200654
1744 4 28.88194721621103 4.879036790187181 36.61987165460852
1745 5 28.88194721621103 7.318555185280768 32.39450184830753
1746 4 28.88194721621103 9.758073580374354 36.61987165460852
1747 3 28.88194721621103 12.19759197546795 32.39450184830753
1748 5 28.88194721621103 21.9556655558423 32.39450184830753
1749 3 28.88194721621103 24.39518395093589 36.61987165460852
1750 1 28.88194721621103 26.83470234602948 32.39450184830753
1751 2 28.88194721621103 0 2.816913204200654
1752 4 28.88194721621103 0 11.26765281680262
1753 3 28.88194721621103 0 19.71839242940458
1754 5 28.88194721621103 0 28.16913204200655
1755 2 28.88194721621103 2.439518395093587 23.94376223570556
1756 4 28.88194721621103 2.43951839509359 7.042283010501635
1757 2 28.88194721621103 4.879036790187174 28.16913204200655
1758 2 28.88194721621103 4.879036790187177 19.71839242940458
1759 3 28.88194721621103 7.318555185280764 23.94376223570556
1760 3 28.88194721621103 7.318555185280768 7.042283010501635
1761 2 28.88194721621103 7.318555185280768 40.84524146090949
1762 1 28.88194721621103 9.758073580374354 11.26765281680262
1763 3 28.88194721621103 9.758073580374354 19.71839242940458
1764 2 28.88194721621103 9.758073580374358 2.816913204200659
1765 2 28.88194721621103 9.758073580374358 28.16913204200655
1766 5 28.88194721621103 12.19759197546794 40.84524146090949
1767 5 28.88194721621103 12.19759197546795 7.042283010501635
1768 3 28.88194721621103 12.19759197546795 23.94376223570556
1769 3 28.88194721621103 14.63711037056153 36.61987165460852
1770 1 28.88194721621103 14.63711037056154 2.816913204200659
1771 5 28.88194721621103 14.63711037056154 19.71839242940458
1772 4 28.88194721621103 14.63711037056154 28.16913204200655
1773 3 28.88194721621103 17.07662876565512 7.042283010501635
1774 4 28.88194721621103 17.07662876565512 23.94376223570556
1775 2 28.88194721621103 17.07662876565513 40.84524146090949
1776 2 28.88194721621103 19.51614716074871 2.816913204200659
1777 3 28.88194721621103 19.51614716074871 28.16913204200655
1778 3 28.88194721621103 19.51614716074871 19.71839242940458
1779 4 28.88194721621103 19.51614716074872 11.26765281680262
1780 4 28.88194721621103 19.51614716074872 36.61987165460852
1781 3 28.88194721621103 21.9556655558423 23.94376223570556
1782 2 28.88194721621103 21.9556655558423 7.042283010501635
1783 5 28.88194721621103 21.9556655558423 40.84524146090949
1784 5 28.88194721621103 24.39518395093589 19.71839242940458
1785 3 28.88194721621103 24.39518395093589 2.816913204200654
1786 4 28.88194721621103 24.39518395093589 28.16913204200655
1787 4 28.88194721621103 26.83470234602948 23.94376223570556
1788 2 28.88194721621104 2.43951839509359 15.4930226231036
1789 3 28.88194721621104 4.879036790187181 11.26765281680262
1790 4 28.88194721621104 7.318555185280768 15.4930226231036
1791 1 28.88194721621104 12.19759197546794 15.4930226231036
1792 2 28.88194721621104 14.63711037056153 11.26765281680262
1793 1 28.88194721621104 17.07662876565512 32.39450184830753
1794 4 28.88194721621104 17.07662876565513 15.4930226231036
1795 1 28.88194721621104 21.9556655558423 15.4930226231036
1796 4 28.88194721621104 24.39518395093589 11.26765281680262
1797 1 28.88194721621104 26.83470234602948 15.4930226231036
1798 1 28.88194721621104 26.83470234602948 40.84524146090949
1799 1 28.88194721621104 26.83470234602948 7.042283010501635
1800 1 29.87787643056313 0 33.80295845040786
1801 3 29.87787643056313 2.439518395093593 38.02832825670884
1802 3 29.87787643056313 4.879036790187177 0
1803 4 29.87787643056313 4.879036790187181 33.80295845040786
1804 5 29.87787643056313 9.758073580374354 33.80295845040786
1805 1 29.87787643056313 24.39518395093589 33.80295845040786
1806 2 29.87787643056313 0 8.450739612601962
1807 1 29.87787643056313 0 25.3522188378059
1808 3 29.87787643056313 2.439518395093587 21.12684903150491
1809 5 29.87787643056313 2.439518395093587 29.57758864410687
1810 4 29.87787643056313 2.43951839509359 4.225369806300981
1811 1 29.87787643056313 4.879036790187174 25.3522188378059
1812 2 29.87787643056313 7.318555185280764 21.12684903150491
1813 2 29.87787643056313 7.318555185280768 4.225369806300981
1814 3 29.87787643056313 7.318555185280768 29.57758864410687
1815 2 29.87787643056313 7.318555185280768 38.02832825670884
1816 5 29.87787643056313 9.758073580374354 8.450739612601968
1817 5 29.87787643056313 9.758073580374358 25.3522188378059
1818 3 29.87787643056313 12.19759197546794 38.02832825670884
1819 1 29.87787643056313 12.19759197546795 4.225369806300981
1820 4 29.87787643056313 12.19759197546795 29.57758864410687
1821 4 29.87787643056313 12.19759197546795 21.12684903150491
1822 1 29.87787643056313 14.63711037056154 25.3522188378059
1823 5 29.87787643056313 17.07662876565512 4.225369806300981
1824 4 29.87787643056313 17.07662876565512 21.12684903150491
1825 2 29.87787643056313 17.07662876565513 38.02832825670883
1826 1 29.87787643056313 19.51614716074871 25.3522188378059
1827 1 29.87787643056313 19.51614716074872 8.450739612601968
1828 3 29.87787643056313 21.9556655558423 21.12684903150491
1829 1 29.87787643056313 21.9556655558423 4.225369806300981
1830 1 29.87787643056313 21.9556655558423 29.57758864410687
1831 1 29.87787643056313 21.9556655558423 38.02832825670883
1832 5 29.87787643056313 24.39518395093589 25.3522188378059
1833 2 29.87787643056313 26.83470234602948 29.57758864410687
1834 1 29.87787643056313 26.83470234602948 21.12684903150491
1835 2 29.87787643056314 0 0
1836 1 29.87787643056314 0 16.90147922520393
1837 5 29.87787643056314 2.43951839509359 12.67610941890294
1838 2 29.87787643056314 4.879036790187177 16.90147922520393
1839 2 29.87787643056314 4.879036790187181 8.450739612601968
1840 3 29.87787643056314 7.318555185280768 12.67610941890294
1841 5 29.87787643056314 9.758073580374354 16.90147922520393
1842 1 29.87787643056314 9.758073580374358 4.691102846511288e-15
1843 4 29.87787643056314 12.19759197546794 12.67610941890294
1844 1 29.87787643056314 14.63711037056153 8.450739612601968
1845 5 29.87787643056314 14.63711037056153 33.80295845040786
1846 4 29.87787643056314 14.63711037056154 4.691102846511288e-15
1847 5 29.87787643056314 14.63711037056154 16.90147922520393
1848 1 29.87787643056314 17.07662876565512 29.57758864410687
1849 3 29.87787643056314 17.07662876565513 12.67610941890294
1850 1 29.87787643056314 19.51614716074871 4.691102846511288e-15
1851 2 29.87787643056314 19.51614716074871 16.90147922520393
1852 5 29.87787643056314 19.51614716074872 33.80295845040786
1853 3 29.87787643056314 21.9556655558423 12.67610941890294
1854 1 29.87787643056314 24.39518395093589 8.450739612601968
1855 2 29.87787643056314 24.39518395093589 16.90147922520393
1856 3 29.87787643056314 24.39518395093589 0
1857 4 29.87787643056314 26.83470234602948 12.67610941890294
1858 3 29.87787643056314 26.83470234602948 38.02832825670883
1859 2 29.87787643056314 26.83470234602948 4.225369806300981
1860 1 30.87380564491523 2.439518395093593 35.21141505250819
1861 5 30.87380564491524 0 5.633826408401308
1862 3 30.87380564491524 0 22.53530563360524
1863 5 30.87380564491524 0 30.9860452462072
1864 4 30.87380564491524 0 39.43678485880917
1865 3 30.87380564491524 2.439518395093587 26.76067543990622
1866 2 30.87380564491524 4.879036790187174 22.53530563360524
1867 4 30.87380564491524 4.879036790187181 30.9860452462072
1868 5 30.87380564491524 4.879036790187181 39.43678485880917
1869 4 30.87380564491524 7.318555185280768 26.76067543990622
1870 1 30.87380564491524 9.758073580374354 5.633826408401313
1871 2 30.87380564491524 9.758073580374354 30.9860452462072
1872 2 30.87380564491524 9.758073580374358 22.53530563360524
1873 1 30.87380564491524 12.19759197546795 26.76067543990622
1874 1 30.87380564491524 14.63711037056154 22.53530563360524
1875 5 30.87380564491524 14.63711037056154 39.43678485880917
1876 3 30.87380564491524 19.51614716074871 22.53530563360524
1877 3 30.87380564491524 19.51614716074871 39.43678485880917
1878 1 30.87380564491524 19.51614716074872 5.633826408401313
1879 4 30.87380564491524 21.9556655558423 26.76067543990622
1880 3 30.87380564491524 24.39518395093589 30.9860452462072
1881 4 30.87380564491524 24.39518395093589 22.53530563360524
1882 2 30.87380564491524 26.83470234602948 26.76067543990622
1883 4 30.87380564491524 0 14.08456602100328
1884 5 30.87380564491524 2.439518395093587 18.30993582730426
1885 5 30.87380564491524 2.43951839509359 1.408456602100327
1886 4 30.87380564491524 2.43951839509359 9.859196214702289
1887 1 30.87380564491524 4.879036790187177 14.08456602100328
1888 1 30.87380564491524 4.879036790187181 5.633826408401313
1889 2 30.87380564491524 7.318555185280764 18.30993582730425
1890 2 30.87380564491524 7.318555185280768 1.408456602100327
1891 5 30.87380564491524 7.318555185280768 9.859196214702289
1892 4 30.87380564491524 7.318555185280768 35.21141505250819
1893 1 30.87380564491524 9.758073580374354 14.08456602100328
1894 4 30.87380564491524 9.758073580374354 39.43678485880917
1895 2 30.87380564491524 12.19759197546794 9.859196214702289
1896 1 30.87380564491524 12.19759197546794 35.21141505250819
1897 4 30.87380564491524 12.19759197546795 1.408456602100327
1898 2 30.87380564491524 12.19759197546795 18.30993582730425
1899 3 30.87380564491524 14.63711037056153 5.633826408401313
1900 4 30.87380564491524 14.63711037056153 30.9860452462072
1901 5 30.87380564491524 14.63711037056154 14.08456602100328
1902 2 30.87380564491524 17.07662876565512 1.408456602100327
1903 3 30.87380564491524 17.07662876565512 18.30993582730425
1904 1 30.87380564491524 17.07662876565512 26.76067543990622
1905 2 30.87380564491524 17.07662876565513 9.859196214702289
1906 2 30.87380564491524 17.07662876565513 35.21141505250818
1907 1 30.87380564491524 19.51614716074871 14.08456602100328
1908 4 30.87380564491524 19.51614716074872 30.9860452462072
1909 4 30.87380564491524 21.9556655558423 18.30993582730425
1910 3 30.87380564491524 21.9556655558423 1.408456602100327
1911 3 30.87380564491524 21.9556655558423 9.859196214702289
1912 1 30.87380564491524 21.9556655558423 35.21141505250818
1913 4 30.87380564491524 24.39518395093589 5.633826408401313
1914 3 30.87380564491524 24.39518395093589 14.08456602100328
1915 5 30.87380564491524 24.39518395093589 39.43678485880917
1916 5 30.87380564491524 26.83470234602948 9.859196214702289
1917 1 30.87380564491524 26.83470234602948 35.21141505250818
1918 2 30.87380564491524 26.83470234602948 1.408456602100327
1919 3 30.87380564491524 26.83470234602948 18.30993582730425
1920 5 31.86973485926734 0 28.16913204200655
1921 1 31.86973485926734 2.439518395093587 23.94376223570556
1922 1 31.86973485926734 2.439518395093593 32.39450184830753
1923 4 31.86973485926734 4.879036790187181 28.16913204200655
1924 2 31.86973485926734 7.318555185280768 23.94376223570556
1925 4 31.86973485926734 9.758073580374354 28.16913204200655
1926 3 31.86973485926734 12.19759197546795 23.94376223570556
1927 3 31.86973485926734 17.07662876565512 40.84524146090949
1928 3 31.86973485926734 21.9556655558423 23.94376223570556
1929 5 31.86973485926734 24.39518395093589 28.16913204200655
1930 5 31.86973485926734 26.83470234602948 23.94376223570556
1931 2 31.86973485926735 0 2.816913204200654
1932 5 31.86973485926735 0 11.26765281680262
1933 4 31.86973485926735 0 19.71839242940458
1934 1 31.86973485926735 0 36.61987165460852
1935 1 31.86973485926735 2.439518395093587 15.4930226231036
1936 4 31.86973485926735 2.439518395093587 40.84524146090949
1937 3 31.86973485926735 2.43951839509359 7.042283010501635
1938 5 31.86973485926735 4.879036790187174 19.71839242940458
1939 4 31.86973485926735 4.879036790187177 11.26765281680262
1940 4 31.86973485926735 4.879036790187181 2.816913204200659
1941 2 31.86973485926735 4.879036790187181 36.61987165460852
1942 3 31.86973485926735 7.318555185280764 15.4930226231036
1943 4 31.86973485926735 7.318555185280768 7.042283010501635
1944 1 31.86973485926735 7.318555185280768 32.39450184830753
1945 1 31.86973485926735 7.318555185280768 40.84524146090949
1946 2 31.86973485926735 9.758073580374354 2.816913204200659
1947 2 31.86973485926735 9.758073580374354 11.26765281680262
1948 3 31.86973485926735 9.758073580374354 36.61987165460852
1949 2 31.86973485926735 9.758073580374358 19.71839242940458
1950 5 31.86973485926735 12.19759197546794 7.042283010501635
1951 1 31.86973485926735 12.19759197546794 32.39450184830753
1952 5 31.86973485926735 12.19759197546795 15.4930226231036
1953 3 31.86973485926735 12.19759197546795 40.84524146090949
1954 1 31.86973485926735 14.63711037056153 2.816913204200659
1955 5 31.86973485926735 14.63711037056153 28.16913204200655
1956 3 31.86973485926735 14.63711037056154 11.26765281680262
1957 4 31.86973485926735 14.63711037056154 19.71839242940458
1958 2 31.86973485926735 14.63711037056154 36.61987165460852
1959 2 31.86973485926735 17.07662876565512 15.4930226231036
1960 4 31.86973485926735 17.07662876565512 23.94376223570556
1961 2 31.86973485926735 17.07662876565513 7.042283010501635
1962 5 31.86973485926735 17.07662876565513 32.39450184830753
1963 5 31.86973485926735 19.51614716074871 19.71839242940458
1964 5 31.86973485926735 19.51614716074871 11.26765281680262
1965 3 31.86973485926735 19.51614716074871 36.61987165460852
1966 3 31.86973485926735 19.51614716074872 2.816913204200659
1967 2 31.86973485926735 19.51614716074872 28.16913204200655
1968 2 31.86973485926735 21.9556655558423 15.4930226231036
1969 2 31.86973485926735 21.9556655558423 40.84524146090949
1970 1 31.86973485926735 21.9556655558423 7.042283010501635
1971 1 31.86973485926735 21.9556655558423 32.39450184830753
1972 4 31.86973485926735 24.39518395093589 2.816913204200659
1973 2 31.86973485926735 24.39518395093589 11.26765281680262
1974 3 31.86973485926735 24.39518395093589 36.61987165460852
1975 5 31.86973485926735 24.39518395093589 19.71839242940458
1976 3 31.86973485926735 26.83470234602948 7.042283010501635
1977 4 31.86973485926735 26.83470234602948 15.4930226231036
1978 1 31.86973485926735 26.83470234602948 40.84524146090949
1979 2 31.86973485926735 26.83470234602948 32.39450184830753
1980 4 32.86566407361945 2.439518395093589 29.57758864410687
