# BCC equiatomic HfMoTaTiZr; profile=compact; x=[110]; seed=20260825

1960 atoms
5 atom types

0.0 34.15325753131025 xlo xhi
0.0 34.15325753131025 ylo yhi
0.0 34.5 zlo zhi
0 0 0 xy xz yz

Masses

1 178.49 # Hf
2 95.95 # Mo
3 180.94788 # Ta
4 47.867 # Ti
5 91.224 # Zr

Atoms # atomic

1 5 0 0 0
2 5 0 0 3.45
3 4 0 0 6.9
4 5 0 0 10.35
5 5 0 0 13.8
6 3 0 0 17.25
7 1 0 0 20.7
8 4 0 0 24.15
9 1 0 0 27.6
10 3 0 0 31.05
11 5 0 2.439518395093588 15.525
12 5 0 2.439518395093588 25.875
13 2 0 2.439518395093588 29.325
14 2 0 2.439518395093588 32.775
15 1 0 2.439518395093589 1.725
16 2 0 2.439518395093589 5.175000000000001
17 2 0 2.439518395093589 8.625
18 3 0 2.439518395093589 12.075
19 1 0 2.43951839509359 18.975
20 5 0 2.43951839509359 22.425
21 3 0 4.879036790187175 27.6
22 5 0 4.879036790187175 31.05
23 2 0 4.879036790187176 13.8
24 3 0 4.879036790187178 0
25 1 0 4.879036790187178 3.45
26 4 0 4.879036790187178 6.9
27 2 0 4.879036790187178 10.35
28 3 0 4.879036790187178 17.25
29 5 0 4.879036790187178 24.15
30 3 0 4.87903679018718 20.7
31 3 0 7.318555185280764 29.325
32 5 0 7.318555185280766 12.075
33 2 0 7.318555185280766 25.875
34 4 0 7.318555185280767 1.725
35 3 0 7.318555185280767 5.175000000000001
36 2 0 7.318555185280767 8.625
37 2 0 7.318555185280767 15.525
38 4 0 7.318555185280768 18.975
39 4 0 7.318555185280768 22.425
40 1 0 7.318555185280768 32.77500000000001
41 2 0 9.758073580374353 27.6
42 4 0 9.758073580374356 0
43 4 0 9.758073580374356 3.450000000000001
44 2 0 9.758073580374356 6.9
45 4 0 9.758073580374356 10.35
46 3 0 9.758073580374356 13.8
47 2 0 9.758073580374356 17.25
48 5 0 9.758073580374356 20.7
49 5 0 9.758073580374356 24.15
50 1 0 9.758073580374356 31.05
51 2 0 12.19759197546794 1.725000000000001
52 3 0 12.19759197546794 5.175000000000001
53 1 0 12.19759197546794 8.625
54 4 0 12.19759197546794 12.075
55 1 0 12.19759197546794 18.975
56 1 0 12.19759197546794 22.425
57 1 0 12.19759197546794 25.875
58 5 0 12.19759197546794 32.77500000000001
59 5 0 12.19759197546795 15.525
60 1 0 12.19759197546795 29.325
61 5 0 14.63711037056153 6.9
62 1 0 14.63711037056153 20.7
63 5 0 14.63711037056153 24.15
64 4 0 14.63711037056153 0
65 4 0 14.63711037056153 3.45
66 4 0 14.63711037056153 10.35
67 2 0 14.63711037056153 17.25
68 4 0 14.63711037056153 31.05
69 2 0 14.63711037056154 13.8
70 4 0 14.63711037056154 27.6
71 3 0 17.07662876565512 22.425
72 5 0 17.07662876565512 5.175
73 4 0 17.07662876565512 18.975
74 2 0 17.07662876565512 32.77500000000001
75 3 0 17.07662876565512 1.725
76 3 0 17.07662876565512 8.625000000000002
77 3 0 17.07662876565512 12.075
78 4 0 17.07662876565512 15.525
79 2 0 17.07662876565512 25.875
80 2 0 17.07662876565512 29.325
81 5 0 19.51614716074871 0
82 4 0 19.51614716074871 3.449999999999999
83 4 0 19.51614716074871 6.900000000000001
84 3 0 19.51614716074871 10.35
85 5 0 19.51614716074871 13.8
86 1 0 19.51614716074871 17.25
87 2 0 19.51614716074871 20.7
88 3 0 19.51614716074871 24.15
89 1 0 19.51614716074871 27.6
90 2 0 19.51614716074871 31.05
91 5 0 21.9556655558423 1.725
92 1 0 21.9556655558423 5.175000000000001
93 4 0 21.9556655558423 8.625
94 5 0 21.9556655558423 12.075
95 5 0 21.9556655558423 15.525
96 1 0 21.9556655558423 18.975
97 2 0 21.9556655558423 22.425
98 1 0 21.9556655558423 25.875
99 4 0 21.9556655558423 29.325
100 2 0 21.9556655558423 32.77500000000001
101 1 0 24.39518395093589 0
102 1 0 24.39518395093589 3.450000000000001
103 5 0 24.39518395093589 10.35
104 4 0 24.39518395093589 13.8
105 4 0 24.39518395093589 17.25
106 2 0 24.39518395093589 24.15
107 1 0 24.39518395093589 27.6
108 5 0 24.39518395093589 6.9
109 4 0 24.39518395093589 20.7
110 3 0 24.39518395093589 31.05
111 4 0 26.83470234602947 1.725000000000001
112 3 0 26.83470234602947 12.075
113 4 0 26.83470234602947 15.525
114 2 0 26.83470234602947 25.875
115 3 0 26.83470234602948 5.175000000000001
116 4 0 26.83470234602948 8.625
117 3 0 26.83470234602948 18.975
118 1 0 26.83470234602948 22.425
119 4 0 26.83470234602948 29.325
120 1 0 26.83470234602948 32.775
121 4 0 29.27422074112306 13.8
122 5 0 29.27422074112307 0
123 1 0 29.27422074112307 3.450000000000001
124 2 0 29.27422074112307 6.9
125 1 0 29.27422074112307 10.35
126 1 0 29.27422074112307 17.25
127 4 0 29.27422074112307 20.7
128 3 0 29.27422074112307 24.15
129 5 0 29.27422074112307 31.05
130 5 0 29.27422074112307 27.6
131 5 0 31.71373913621665 5.175000000000001
132 2 0 31.71373913621665 8.625
133 2 0 31.71373913621665 12.075
134 1 0 31.71373913621665 18.975
135 1 0 31.71373913621665 22.425
136 2 0 31.71373913621665 32.77500000000001
137 5 0 31.71373913621666 1.725
138 1 0 31.71373913621666 15.525
139 2 0 31.71373913621666 25.875
140 5 0 31.71373913621666 29.325
141 1 2.439518395093589 2.439518395093588 13.8
142 3 2.439518395093589 2.439518395093588 24.15
143 1 2.439518395093589 2.439518395093588 27.6
144 3 2.439518395093589 2.439518395093588 31.05
145 1 2.439518395093589 2.439518395093589 0
146 5 2.439518395093589 2.439518395093589 3.450000000000001
147 5 2.439518395093589 2.439518395093589 6.9
148 2 2.439518395093589 2.439518395093589 10.35
149 5 2.439518395093589 2.43951839509359 17.25
150 1 2.439518395093589 2.43951839509359 20.7
151 2 2.439518395093589 4.879036790187175 25.875
152 5 2.439518395093589 4.879036790187175 29.325
153 4 2.439518395093589 4.879036790187176 12.075
154 1 2.439518395093589 4.879036790187178 1.725
155 5 2.439518395093589 4.879036790187178 5.175000000000001
156 1 2.439518395093589 4.879036790187178 8.625000000000002
157 3 2.439518395093589 4.879036790187178 15.525
158 4 2.439518395093589 4.879036790187178 22.425
159 2 2.439518395093589 4.87903679018718 18.975
160 4 2.439518395093589 4.87903679018718 32.775
161 4 2.439518395093589 7.318555185280764 27.6
162 5 2.439518395093589 7.318555185280766 10.35
163 4 2.439518395093589 7.318555185280766 24.15
164 2 2.439518395093589 7.318555185280767 0
165 3 2.439518395093589 7.318555185280767 3.450000000000001
166 3 2.439518395093589 7.318555185280767 6.9
167 3 2.439518395093589 7.318555185280767 13.8
168 3 2.439518395093589 7.318555185280768 17.25
169 4 2.439518395093589 7.318555185280768 20.7
170 3 2.439518395093589 7.318555185280768 31.05
171 1 2.439518395093589 9.758073580374353 25.875
172 1 2.439518395093589 9.758073580374356 1.725000000000001
173 5 2.439518395093589 9.758073580374356 5.175000000000001
174 1 2.439518395093589 9.758073580374356 8.625
175 1 2.439518395093589 9.758073580374356 12.075
176 4 2.439518395093589 9.758073580374356 15.525
177 4 2.439518395093589 9.758073580374356 18.975
178 1 2.439518395093589 9.758073580374356 22.425
179 3 2.439518395093589 9.758073580374356 29.325
180 4 2.439518395093589 9.758073580374356 32.775
181 4 2.439518395093589 12.19759197546794 4.787836793695988e-16
182 1 2.439518395093589 12.19759197546794 3.450000000000001
183 5 2.439518395093589 12.19759197546794 6.9
184 5 2.439518395093589 12.19759197546794 10.35
185 5 2.439518395093589 12.19759197546794 17.25
186 3 2.439518395093589 12.19759197546794 20.7
187 4 2.439518395093589 12.19759197546794 24.15
188 5 2.439518395093589 12.19759197546794 31.05
189 1 2.439518395093589 12.19759197546795 13.8
190 2 2.439518395093589 12.19759197546795 27.6
191 1 2.439518395093589 14.63711037056153 5.175000000000001
192 4 2.439518395093589 14.63711037056153 18.975
193 2 2.439518395093589 14.63711037056153 22.425
194 5 2.439518395093589 14.63711037056153 32.775
195 3 2.439518395093589 14.63711037056153 1.725
196 5 2.439518395093589 14.63711037056153 8.625000000000002
197 5 2.439518395093589 14.63711037056153 15.525
198 5 2.439518395093589 14.63711037056153 29.325
199 4 2.439518395093589 14.63711037056154 12.075
200 5 2.439518395093589 14.63711037056154 25.875
201 5 2.439518395093589 17.07662876565512 20.7
202 1 2.439518395093589 17.07662876565512 3.45
203 5 2.439518395093589 17.07662876565512 17.25
204 4 2.439518395093589 17.07662876565512 31.05
205 2 2.439518395093589 17.07662876565512 6.900000000000002
206 2 2.439518395093589 17.07662876565512 10.35
207 3 2.439518395093589 17.07662876565512 13.8
208 1 2.439518395093589 17.07662876565512 24.15
209 3 2.439518395093589 17.07662876565512 27.6
210 3 2.439518395093589 17.07662876565512 34.5
211 3 2.439518395093589 19.51614716074871 1.724999999999999
212 5 2.439518395093589 19.51614716074871 5.175000000000001
213 1 2.439518395093589 19.51614716074871 8.625000000000002
214 3 2.439518395093589 19.51614716074871 12.075
215 5 2.439518395093589 19.51614716074871 15.525
216 4 2.439518395093589 19.51614716074871 18.975
217 4 2.439518395093589 19.51614716074871 22.425
218 2 2.439518395093589 19.51614716074871 25.875
219 4 2.439518395093589 19.51614716074871 29.325
220 3 2.439518395093589 19.51614716074871 32.775
221 3 2.439518395093589 21.9556655558423 3.450000000000001
222 4 2.439518395093589 21.9556655558423 6.9
223 4 2.439518395093589 21.9556655558423 10.35
224 2 2.439518395093589 21.9556655558423 13.8
225 3 2.439518395093589 21.9556655558423 17.25
226 5 2.439518395093589 21.9556655558423 20.7
227 1 2.439518395093589 21.9556655558423 24.15
228 4 2.439518395093589 21.9556655558423 27.6
229 5 2.439518395093589 21.9556655558423 34.5
230 2 2.439518395093589 21.9556655558423 31.05
231 3 2.439518395093589 24.39518395093589 1.725000000000001
232 3 2.439518395093589 24.39518395093589 8.625000000000002
233 1 2.439518395093589 24.39518395093589 12.075
234 4 2.439518395093589 24.39518395093589 15.525
235 5 2.439518395093589 24.39518395093589 22.425
236 4 2.439518395093589 24.39518395093589 25.875
237 4 2.439518395093589 24.39518395093589 5.175000000000001
238 1 2.439518395093589 24.39518395093589 18.975
239 1 2.439518395093589 24.39518395093589 29.325
240 1 2.439518395093589 24.39518395093589 32.775
241 1 2.439518395093589 26.83470234602947 1.436351038108796e-15
242 1 2.439518395093589 26.83470234602947 10.35
243 2 2.439518395093589 26.83470234602947 13.8
244 4 2.439518395093589 26.83470234602947 24.15
245 1 2.439518395093589 26.83470234602948 3.450000000000001
246 3 2.439518395093589 26.83470234602948 6.9
247 4 2.439518395093589 26.83470234602948 17.25
248 1 2.439518395093589 26.83470234602948 20.7
249 4 2.439518395093589 26.83470234602948 27.6
250 2 2.439518395093589 26.83470234602948 31.05
251 5 2.439518395093589 29.27422074112306 12.075
252 4 2.439518395093589 29.27422074112307 1.725000000000001
253 5 2.439518395093589 29.27422074112307 5.175000000000001
254 4 2.439518395093589 29.27422074112307 8.625
255 2 2.439518395093589 29.27422074112307 15.525
256 5 2.439518395093589 29.27422074112307 18.975
257 3 2.439518395093589 29.27422074112307 22.425
258 2 2.439518395093589 29.27422074112307 29.325
259 1 2.439518395093589 29.27422074112307 32.775
260 2 2.439518395093589 29.27422074112307 25.875
261 2 2.439518395093589 31.71373913621665 3.450000000000001
262 1 2.439518395093589 31.71373913621665 6.9
263 2 2.439518395093589 31.71373913621665 10.35
264 5 2.439518395093589 31.71373913621665 17.25
265 5 2.439518395093589 31.71373913621665 20.7
266 5 2.439518395093589 31.71373913621665 31.05
267 5 2.439518395093589 31.71373913621666 13.8
268 1 2.439518395093589 31.71373913621666 24.15
269 4 2.439518395093589 31.71373913621666 27.6
270 4 2.439518395093589 31.71373913621666 34.5
271 2 2.439518395093589 34.15325753131025 1.725
272 3 2.439518395093589 34.15325753131025 5.175000000000001
273 4 2.439518395093589 34.15325753131025 8.625000000000002
274 2 2.439518395093589 34.15325753131025 12.075
275 3 2.439518395093589 34.15325753131025 15.525
276 5 2.439518395093589 34.15325753131025 18.975
277 3 2.439518395093589 34.15325753131025 22.425
278 4 2.439518395093589 34.15325753131025 25.875
279 3 2.439518395093589 34.15325753131025 29.325
280 5 2.439518395093589 34.15325753131025 32.775
281 1 4.879036790187178 2.439518395093587 12.075
282 2 4.879036790187178 2.439518395093587 22.425
283 3 4.879036790187178 2.439518395093587 25.875
284 3 4.879036790187178 2.439518395093587 29.325
285 1 4.879036790187178 2.439518395093588 1.725000000000001
286 1 4.879036790187178 2.439518395093588 5.175
287 1 4.879036790187178 2.439518395093588 8.625
288 4 4.879036790187178 2.439518395093589 15.525
289 4 4.879036790187178 2.439518395093589 18.975
290 1 4.879036790187178 2.439518395093591 32.77500000000001
291 4 4.879036790187178 4.879036790187175 24.15
292 4 4.879036790187178 4.879036790187175 27.6
293 5 4.879036790187178 4.879036790187176 10.35
294 1 4.879036790187178 4.879036790187178 0
295 3 4.879036790187178 4.879036790187178 3.45
296 5 4.879036790187178 4.879036790187178 6.900000000000001
297 3 4.879036790187178 4.879036790187178 13.8
298 4 4.879036790187178 4.879036790187178 20.7
299 1 4.879036790187178 4.87903679018718 17.25
300 1 4.879036790187178 4.87903679018718 31.05
301 1 4.879036790187178 7.318555185280764 25.875
302 4 4.879036790187178 7.318555185280766 8.624999999999998
303 1 4.879036790187178 7.318555185280766 22.425
304 1 4.879036790187178 7.318555185280767 1.725000000000001
305 3 4.879036790187178 7.318555185280767 5.175
306 2 4.879036790187178 7.318555185280767 12.075
307 5 4.879036790187178 7.318555185280768 15.525
308 1 4.879036790187178 7.318555185280768 18.975
309 3 4.879036790187178 7.318555185280768 29.325
310 4 4.879036790187178 7.318555185280768 32.77500000000001
311 5 4.879036790187178 9.758073580374353 24.15
312 5 4.879036790187178 9.758073580374356 4.787836793695988e-16
313 2 4.879036790187178 9.758073580374356 3.45
314 5 4.879036790187178 9.758073580374356 6.899999999999999
315 1 4.879036790187178 9.758073580374356 10.35
316 5 4.879036790187178 9.758073580374356 13.8
317 5 4.879036790187178 9.758073580374356 17.25
318 2 4.879036790187178 9.758073580374356 20.7
319 1 4.879036790187178 9.758073580374356 27.6
320 2 4.879036790187178 9.758073580374356 31.05
321 5 4.879036790187178 12.19759197546794 1.725000000000001
322 3 4.879036790187178 12.19759197546794 5.175
323 5 4.879036790187178 12.19759197546794 8.625
324 3 4.879036790187178 12.19759197546794 15.525
325 1 4.879036790187178 12.19759197546794 18.975
326 5 4.879036790187178 12.19759197546794 22.425
327 4 4.879036790187178 12.19759197546794 29.32500000000001
328 3 4.879036790187178 12.19759197546794 32.77500000000001
329 1 4.879036790187178 12.19759197546795 12.075
330 3 4.879036790187178 12.19759197546795 25.875
331 1 4.879036790187178 14.63711037056153 3.45
332 4 4.879036790187178 14.63711037056153 17.25
333 4 4.879036790187178 14.63711037056153 20.7
334 2 4.879036790187178 14.63711037056153 31.05
335 1 4.879036790187178 14.63711037056153 0
336 5 4.879036790187178 14.63711037056153 6.900000000000001
337 4 4.879036790187178 14.63711037056153 13.8
338 3 4.879036790187178 14.63711037056153 27.6
339 1 4.879036790187178 14.63711037056154 10.35
340 2 4.879036790187178 14.63711037056154 24.15
341 4 4.879036790187178 17.07662876565512 18.975
342 4 4.879036790187178 17.07662876565512 1.725
343 1 4.879036790187178 17.07662876565512 15.525
344 2 4.879036790187178 17.07662876565512 29.325
345 3 4.879036790187178 17.07662876565512 5.175000000000002
346 3 4.879036790187178 17.07662876565512 8.625
347 2 4.879036790187178 17.07662876565512 12.075
348 3 4.879036790187178 17.07662876565512 22.425
349 3 4.879036790187178 17.07662876565512 25.875
350 4 4.879036790187178 17.07662876565512 32.77500000000001
351 2 4.879036790187178 19.51614716074871 3.450000000000001
352 4 4.879036790187178 19.51614716074871 6.900000000000001
353 4 4.879036790187178 19.51614716074871 10.35
354 3 4.879036790187178 19.51614716074871 13.8
355 4 4.879036790187178 19.51614716074871 17.25
356 5 4.879036790187178 19.51614716074871 20.7
357 4 4.879036790187178 19.51614716074871 24.15
358 2 4.879036790187178 19.51614716074871 27.6
359 3 4.879036790187178 19.51614716074871 31.05
360 1 4.879036790187178 19.51614716074871 34.5
361 2 4.879036790187178 21.9556655558423 1.725000000000001
362 1 4.879036790187178 21.9556655558423 5.175
363 5 4.879036790187178 21.9556655558423 8.625
364 4 4.879036790187178 21.9556655558423 12.075
365 2 4.879036790187178 21.9556655558423 15.525
366 4 4.879036790187178 21.9556655558423 18.975
367 3 4.879036790187178 21.9556655558423 22.425
368 2 4.879036790187178 21.9556655558423 25.875
369 3 4.879036790187178 21.9556655558423 32.77500000000001
370 2 4.879036790187178 21.9556655558423 29.325
371 3 4.879036790187178 24.39518395093589 9.575673587391975e-16
372 2 4.879036790187178 24.39518395093589 6.900000000000001
373 3 4.879036790187178 24.39518395093589 10.35
374 3 4.879036790187178 24.39518395093589 13.8
375 1 4.879036790187178 24.39518395093589 20.7
376 1 4.879036790187178 24.39518395093589 24.15
377 4 4.879036790187178 24.39518395093589 3.45
378 4 4.879036790187178 24.39518395093589 17.25
379 3 4.879036790187178 24.39518395093589 27.6
380 1 4.879036790187178 24.39518395093589 31.05
381 2 4.879036790187178 26.83470234602947 8.624999999999998
382 1 4.879036790187178 26.83470234602947 12.075
383 5 4.879036790187178 26.83470234602947 22.425
384 2 4.879036790187178 26.83470234602948 1.725000000000001
385 1 4.879036790187178 26.83470234602948 5.175
386 4 4.879036790187178 26.83470234602948 15.525
387 1 4.879036790187178 26.83470234602948 18.975
388 3 4.879036790187178 26.83470234602948 25.875
389 1 4.879036790187178 26.83470234602948 29.325
390 3 4.879036790187178 26.83470234602948 32.77500000000001
391 3 4.879036790187178 29.27422074112306 10.35
392 4 4.879036790187178 29.27422074112307 9.575673587391975e-16
393 2 4.879036790187178 29.27422074112307 3.45
394 1 4.879036790187178 29.27422074112307 6.899999999999999
395 5 4.879036790187178 29.27422074112307 13.8
396 3 4.879036790187178 29.27422074112307 17.25
397 1 4.879036790187178 29.27422074112307 20.7
398 2 4.879036790187178 29.27422074112307 27.6
399 2 4.879036790187178 29.27422074112307 31.05
400 4 4.879036790187178 29.27422074112307 24.15
401 1 4.879036790187178 31.71373913621665 1.725000000000001
402 4 4.879036790187178 31.71373913621665 5.175
403 3 4.879036790187178 31.71373913621665 8.624999999999998
404 2 4.879036790187178 31.71373913621665 15.525
405 3 4.879036790187178 31.71373913621665 18.975
406 3 4.879036790187178 31.71373913621665 29.325
407 1 4.879036790187178 31.71373913621665 32.77500000000001
408 1 4.879036790187178 31.71373913621666 12.075
409 1 4.879036790187178 31.71373913621666 22.425
410 3 4.879036790187178 31.71373913621666 25.875
411 4 4.879036790187178 34.15325753131025 0
412 2 4.879036790187178 34.15325753131025 3.45
413 4 4.879036790187178 34.15325753131025 6.900000000000001
414 4 4.879036790187178 34.15325753131025 10.35
415 3 4.879036790187178 34.15325753131025 13.8
416 5 4.879036790187178 34.15325753131025 17.25
417 5 4.879036790187178 34.15325753131025 20.7
418 5 4.879036790187178 34.15325753131025 24.15
419 2 4.879036790187178 34.15325753131025 27.6
420 1 4.879036790187178 34.15325753131025 31.05
421 3 7.318555185280767 2.439518395093587 10.35
422 1 7.318555185280767 2.439518395093587 20.7
423 1 7.318555185280767 2.439518395093587 24.15
424 2 7.318555185280767 2.439518395093587 27.6
425 1 7.318555185280767 2.439518395093588 0
426 4 7.318555185280767 2.439518395093588 3.449999999999999
427 2 7.318555185280767 2.439518395093588 6.9
428 1 7.318555185280767 2.439518395093589 13.8
429 1 7.318555185280767 2.439518395093589 17.25
430 5 7.318555185280767 2.439518395093591 31.05
431 5 7.318555185280767 4.879036790187175 22.425
432 1 7.318555185280767 4.879036790187175 25.875
433 1 7.318555185280767 4.879036790187176 8.625
434 3 7.318555185280767 4.879036790187178 1.725
435 4 7.318555185280767 4.879036790187178 5.175000000000001
436 2 7.318555185280767 4.879036790187178 12.075
437 4 7.318555185280767 4.879036790187178 18.975
438 5 7.318555185280767 4.87903679018718 15.525
439 3 7.318555185280767 4.87903679018718 29.325
440 4 7.318555185280767 4.87903679018718 32.77500000000001
441 3 7.318555185280767 7.318555185280764 24.15
442 4 7.318555185280767 7.318555185280766 6.899999999999999
443 1 7.318555185280767 7.318555185280766 20.7
444 5 7.318555185280767 7.318555185280767 0
445 5 7.318555185280767 7.318555185280767 3.449999999999999
446 5 7.318555185280767 7.318555185280767 10.35
447 4 7.318555185280767 7.318555185280768 13.8
448 4 7.318555185280767 7.318555185280768 17.25
449 2 7.318555185280767 7.318555185280768 27.6
450 5 7.318555185280767 7.318555185280768 31.05
451 4 7.318555185280767 9.758073580374353 22.425
452 1 7.318555185280767 9.758073580374356 1.725
453 2 7.318555185280767 9.758073580374356 5.174999999999999
454 3 7.318555185280767 9.758073580374356 8.625
455 2 7.318555185280767 9.758073580374356 12.075
456 5 7.318555185280767 9.758073580374356 15.525
457 1 7.318555185280767 9.758073580374356 18.975
458 5 7.318555185280767 9.758073580374356 25.875
459 2 7.318555185280767 9.758073580374356 29.325
460 4 7.318555185280767 9.758073580374356 32.77500000000001
461 1 7.318555185280767 12.19759197546794 0
462 3 7.318555185280767 12.19759197546794 3.449999999999999
463 3 7.318555185280767 12.19759197546794 6.9
464 2 7.318555185280767 12.19759197546794 13.8
465 2 7.318555185280767 12.19759197546794 17.25
466 1 7.318555185280767 12.19759197546794 20.7
467 5 7.318555185280767 12.19759197546794 27.6
468 3 7.318555185280767 12.19759197546794 31.05
469 5 7.318555185280767 12.19759197546795 10.35
470 3 7.318555185280767 12.19759197546795 24.15
471 5 7.318555185280767 14.63711037056153 1.725
472 1 7.318555185280767 14.63711037056153 15.525
473 5 7.318555185280767 14.63711037056153 18.975
474 2 7.318555185280767 14.63711037056153 29.325
475 2 7.318555185280767 14.63711037056153 5.175000000000001
476 1 7.318555185280767 14.63711037056153 12.075
477 5 7.318555185280767 14.63711037056153 25.875
478 5 7.318555185280767 14.63711037056154 8.625
479 1 7.318555185280767 14.63711037056154 22.425
480 5 7.318555185280767 14.63711037056154 32.77500000000001
481 1 7.318555185280767 17.07662876565512 17.25
482 2 7.318555185280767 17.07662876565512 13.8
483 1 7.318555185280767 17.07662876565512 27.6
484 2 7.318555185280767 17.07662876565512 34.5
485 5 7.318555185280767 17.07662876565512 3.450000000000001
486 3 7.318555185280767 17.07662876565512 6.9
487 5 7.318555185280767 17.07662876565512 10.35
488 4 7.318555185280767 17.07662876565512 20.7
489 1 7.318555185280767 17.07662876565512 24.15
490 1 7.318555185280767 17.07662876565512 31.05
491 3 7.318555185280767 19.51614716074871 1.725000000000001
492 3 7.318555185280767 19.51614716074871 5.175000000000001
493 1 7.318555185280767 19.51614716074871 8.625
494 2 7.318555185280767 19.51614716074871 12.075
495 3 7.318555185280767 19.51614716074871 15.525
496 4 7.318555185280767 19.51614716074871 18.975
497 3 7.318555185280767 19.51614716074871 22.425
498 5 7.318555185280767 19.51614716074871 25.875
499 5 7.318555185280767 19.51614716074871 29.325
500 5 7.318555185280767 19.51614716074871 32.77500000000001
501 1 7.318555185280767 21.9556655558423 0
502 5 7.318555185280767 21.9556655558423 3.449999999999999
503 1 7.318555185280767 21.9556655558423 6.9
504 2 7.318555185280767 21.9556655558423 10.35
505 5 7.318555185280767 21.9556655558423 13.8
506 4 7.318555185280767 21.9556655558423 17.25
507 4 7.318555185280767 21.9556655558423 20.7
508 4 7.318555185280767 21.9556655558423 24.15
509 2 7.318555185280767 21.9556655558423 31.05
510 3 7.318555185280767 21.9556655558423 27.6
511 5 7.318555185280767 24.39518395093589 5.175000000000001
512 2 7.318555185280767 24.39518395093589 8.625
513 4 7.318555185280767 24.39518395093589 12.075
514 3 7.318555185280767 24.39518395093589 18.975
515 3 7.318555185280767 24.39518395093589 22.425
516 3 7.318555185280767 24.39518395093589 32.77500000000001
517 2 7.318555185280767 24.39518395093589 1.725
518 1 7.318555185280767 24.39518395093589 15.525
519 2 7.318555185280767 24.39518395093589 25.875
520 1 7.318555185280767 24.39518395093589 29.325
521 2 7.318555185280767 26.83470234602947 6.899999999999999
522 1 7.318555185280767 26.83470234602947 10.35
523 5 7.318555185280767 26.83470234602947 20.7
524 4 7.318555185280767 26.83470234602948 0
525 5 7.318555185280767 26.83470234602948 3.449999999999999
526 4 7.318555185280767 26.83470234602948 13.8
527 5 7.318555185280767 26.83470234602948 17.25
528 5 7.318555185280767 26.83470234602948 24.15
529 1 7.318555185280767 26.83470234602948 27.6
530 2 7.318555185280767 26.83470234602948 31.05
531 5 7.318555185280767 29.27422074112306 8.625
532 5 7.318555185280767 29.27422074112307 1.725
533 3 7.318555185280767 29.27422074112307 5.174999999999999
534 1 7.318555185280767 29.27422074112307 12.075
535 2 7.318555185280767 29.27422074112307 15.525
536 5 7.318555185280767 29.27422074112307 18.975
537 1 7.318555185280767 29.27422074112307 25.875
538 3 7.318555185280767 29.27422074112307 29.325
539 1 7.318555185280767 29.27422074112307 32.77500000000001
540 5 7.318555185280767 29.27422074112307 22.425
541 2 7.318555185280767 31.71373913621665 0
542 2 7.318555185280767 31.71373913621665 3.449999999999999
543 3 7.318555185280767 31.71373913621665 6.899999999999999
544 4 7.318555185280767 31.71373913621665 13.8
545 3 7.318555185280767 31.71373913621665 17.25
546 4 7.318555185280767 31.71373913621665 27.6
547 3 7.318555185280767 31.71373913621665 31.05
548 5 7.318555185280767 31.71373913621666 10.35
549 2 7.318555185280767 31.71373913621666 20.7
550 3 7.318555185280767 31.71373913621666 24.15
551 2 7.318555185280767 34.15325753131025 1.725
552 2 7.318555185280767 34.15325753131025 5.175000000000001
553 2 7.318555185280767 34.15325753131025 8.625
554 1 7.318555185280767 34.15325753131025 12.075
555 3 7.318555185280767 34.15325753131025 15.525
556 1 7.318555185280767 34.15325753131025 18.975
557 5 7.318555185280767 34.15325753131025 22.425
558 2 7.318555185280767 34.15325753131025 25.875
559 2 7.318555185280767 34.15325753131025 29.325
560 4 7.318555185280767 34.15325753131025 32.77500000000001
561 5 9.758073580374356 2.439518395093587 8.625
562 2 9.758073580374356 2.439518395093587 18.975
563 2 9.758073580374356 2.439518395093587 22.425
564 5 9.758073580374356 2.439518395093587 25.875
565 2 9.758073580374356 2.439518395093587 32.77500000000001
566 4 9.758073580374356 2.439518395093588 1.725
567 1 9.758073580374356 2.439518395093588 5.175000000000001
568 1 9.758073580374356 2.439518395093589 12.075
569 3 9.758073580374356 2.439518395093589 15.525
570 3 9.758073580374356 2.439518395093591 29.325
571 4 9.758073580374356 4.879036790187175 20.7
572 3 9.758073580374356 4.879036790187175 24.15
573 3 9.758073580374356 4.879036790187175 6.9
574 5 9.758073580374356 4.879036790187176 0
575 3 9.758073580374356 4.879036790187176 3.450000000000001
576 5 9.758073580374356 4.879036790187176 10.35
577 5 9.758073580374356 4.879036790187176 17.25
578 4 9.758073580374356 4.879036790187179 13.8
579 5 9.758073580374356 4.879036790187179 27.6
580 3 9.758073580374356 4.879036790187179 31.05
581 3 9.758073580374356 7.318555185280763 22.425
582 5 9.758073580374356 7.318555185280765 5.174999999999999
583 5 9.758073580374356 7.318555185280765 18.975
584 2 9.758073580374356 7.318555185280766 1.725
585 3 9.758073580374356 7.318555185280766 8.625000000000002
586 5 9.758073580374356 7.318555185280767 12.075
587 4 9.758073580374356 7.318555185280767 15.525
588 5 9.758073580374356 7.318555185280767 25.875
589 3 9.758073580374356 7.318555185280767 29.325
590 2 9.758073580374356 7.318555185280767 32.775
591 3 9.758073580374356 9.758073580374353 20.7
592 5 9.758073580374356 9.758073580374356 0
593 3 9.758073580374356 9.758073580374356 3.449999999999999
594 3 9.758073580374356 9.758073580374356 6.9
595 3 9.758073580374356 9.758073580374356 10.35
596 5 9.758073580374356 9.758073580374356 13.8
597 4 9.758073580374356 9.758073580374356 17.25
598 5 9.758073580374356 9.758073580374356 24.15000000000001
599 3 9.758073580374356 9.758073580374356 27.6
600 5 9.758073580374356 9.758073580374356 31.05
601 4 9.758073580374356 12.19759197546794 1.725
602 4 9.758073580374356 12.19759197546794 5.175000000000001
603 1 9.758073580374356 12.19759197546794 12.075
604 5 9.758073580374356 12.19759197546794 15.525
605 3 9.758073580374356 12.19759197546794 18.975
606 4 9.758073580374356 12.19759197546794 25.87500000000001
607 3 9.758073580374356 12.19759197546794 29.325
608 2 9.758073580374356 12.19759197546795 8.625000000000002
609 5 9.758073580374356 12.19759197546795 22.425
610 4 9.758073580374356 12.19759197546795 32.77500000000001
611 3 9.758073580374356 14.63711037056153 0
612 2 9.758073580374356 14.63711037056153 13.8
613 4 9.758073580374356 14.63711037056153 17.25
614 3 9.758073580374356 14.63711037056153 27.6
615 3 9.758073580374356 14.63711037056153 3.450000000000001
616 4 9.758073580374356 14.63711037056153 10.35
617 5 9.758073580374356 14.63711037056153 24.15000000000001
618 1 9.758073580374356 14.63711037056154 6.9
619 2 9.758073580374356 14.63711037056154 20.7
620 3 9.758073580374356 14.63711037056154 31.05
621 1 9.758073580374356 17.07662876565512 15.525
622 4 9.758073580374356 17.07662876565512 12.075
623 5 9.758073580374356 17.07662876565512 25.875
624 2 9.758073580374356 17.07662876565512 1.725000000000001
625 4 9.758073580374356 17.07662876565512 5.175000000000001
626 3 9.758073580374356 17.07662876565512 8.625
627 5 9.758073580374356 17.07662876565512 18.975
628 3 9.758073580374356 17.07662876565512 22.425
629 4 9.758073580374356 17.07662876565512 29.325
630 3 9.758073580374356 17.07662876565512 32.775
631 1 9.758073580374356 19.51614716074871 9.575673587391975e-16
632 1 9.758073580374356 19.51614716074871 3.450000000000001
633 5 9.758073580374356 19.51614716074871 6.9
634 2 9.758073580374356 19.51614716074871 10.35
635 4 9.758073580374356 19.51614716074871 13.8
636 3 9.758073580374356 19.51614716074871 17.25
637 3 9.758073580374356 19.51614716074871 20.7
638 3 9.758073580374356 19.51614716074871 24.15
639 5 9.758073580374356 19.51614716074871 27.6
640 3 9.758073580374356 19.51614716074871 31.05
641 5 9.758073580374356 21.9556655558423 1.725
642 1 9.758073580374356 21.9556655558423 5.175000000000001
643 4 9.758073580374356 21.9556655558423 8.625
644 2 9.758073580374356 21.9556655558423 12.075
645 1 9.758073580374356 21.9556655558423 15.525
646 4 9.758073580374356 21.9556655558423 18.975
647 2 9.758073580374356 21.9556655558423 22.425
648 2 9.758073580374356 21.9556655558423 29.325
649 5 9.758073580374356 21.9556655558423 32.77500000000001
650 4 9.758073580374356 21.9556655558423 25.875
651 1 9.758073580374356 24.39518395093589 3.450000000000001
652 3 9.758073580374356 24.39518395093589 6.9
653 3 9.758073580374356 24.39518395093589 10.35
654 3 9.758073580374356 24.39518395093589 17.25
655 1 9.758073580374356 24.39518395093589 20.7
656 3 9.758073580374356 24.39518395093589 31.05
657 2 9.758073580374356 24.39518395093589 0
658 4 9.758073580374356 24.39518395093589 13.8
659 4 9.758073580374356 24.39518395093589 24.15000000000001
660 3 9.758073580374356 24.39518395093589 27.6
661 4 9.758073580374356 26.83470234602947 5.174999999999999
662 2 9.758073580374356 26.83470234602947 8.625
663 3 9.758073580374356 26.83470234602947 18.975
664 1 9.758073580374356 26.83470234602947 32.77500000000001
665 4 9.758073580374356 26.83470234602948 1.725
666 2 9.758073580374356 26.83470234602948 12.075
667 1 9.758073580374356 26.83470234602948 15.525
668 3 9.758073580374356 26.83470234602948 22.425
669 1 9.758073580374356 26.83470234602948 25.875
670 1 9.758073580374356 26.83470234602948 29.325
671 2 9.758073580374356 29.27422074112306 6.9
672 5 9.758073580374356 29.27422074112307 0
673 5 9.758073580374356 29.27422074112307 3.449999999999999
674 3 9.758073580374356 29.27422074112307 10.35
675 4 9.758073580374356 29.27422074112307 13.8
676 2 9.758073580374356 29.27422074112307 17.25
677 5 9.758073580374356 29.27422074112307 24.15
678 4 9.758073580374356 29.27422074112307 27.6
679 2 9.758073580374356 29.27422074112307 31.05
680 5 9.758073580374356 29.27422074112307 20.7
681 5 9.758073580374356 31.71373913621665 1.725
682 2 9.758073580374356 31.71373913621665 5.174999999999999
683 4 9.758073580374356 31.71373913621665 12.075
684 3 9.758073580374356 31.71373913621665 15.525
685 1 9.758073580374356 31.71373913621665 25.875
686 1 9.758073580374356 31.71373913621665 29.325
687 1 9.758073580374356 31.71373913621665 32.775
688 2 9.758073580374356 31.71373913621666 8.625000000000002
689 2 9.758073580374356 31.71373913621666 18.975
690 1 9.758073580374356 31.71373913621666 22.425
691 4 9.758073580374356 34.15325753131025 0
692 1 9.758073580374356 34.15325753131025 3.450000000000001
693 4 9.758073580374356 34.15325753131025 6.9
694 5 9.758073580374356 34.15325753131025 10.35
695 1 9.758073580374356 34.15325753131025 13.8
696 1 9.758073580374356 34.15325753131025 17.25
697 5 9.758073580374356 34.15325753131025 20.7
698 5 9.758073580374356 34.15325753131025 24.15
699 3 9.758073580374356 34.15325753131025 27.6
700 1 9.758073580374356 34.15325753131025 31.05
701 5 12.19759197546794 2.439518395093587 6.9
702 2 12.19759197546794 2.439518395093587 17.25
703 1 12.19759197546794 2.439518395093587 20.7
704 4 12.19759197546794 2.439518395093587 24.15
705 1 12.19759197546794 2.439518395093587 31.05
706 5 12.19759197546794 2.439518395093588 0
707 3 12.19759197546794 2.439518395093588 3.450000000000001
708 1 12.19759197546794 2.439518395093589 10.35
709 4 12.19759197546794 2.439518395093589 13.8
710 2 12.19759197546794 2.439518395093591 27.6
711 5 12.19759197546794 4.879036790187175 18.975
712 1 12.19759197546794 4.879036790187175 22.425
713 1 12.19759197546794 4.879036790187175 32.77500000000001
714 3 12.19759197546794 4.879036790187175 5.175000000000001
715 4 12.19759197546794 4.879036790187176 1.725000000000001
716 5 12.19759197546794 4.879036790187176 8.625
717 4 12.19759197546794 4.879036790187176 15.525
718 2 12.19759197546794 4.879036790187179 12.075
719 4 12.19759197546794 4.879036790187179 25.875
720 4 12.19759197546794 4.879036790187179 29.325
721 3 12.19759197546794 7.318555185280763 20.7
722 1 12.19759197546794 7.318555185280765 3.449999999999999
723 2 12.19759197546794 7.318555185280765 17.25
724 3 12.19759197546794 7.318555185280766 0
725 3 12.19759197546794 7.318555185280766 6.900000000000002
726 2 12.19759197546794 7.318555185280767 10.35
727 3 12.19759197546794 7.318555185280767 13.8
728 1 12.19759197546794 7.318555185280767 24.15
729 3 12.19759197546794 7.318555185280767 27.6
730 2 12.19759197546794 7.318555185280767 31.05
731 1 12.19759197546794 9.758073580374353 18.975
732 4 12.19759197546794 9.758073580374356 1.725
733 2 12.19759197546794 9.758073580374356 5.175000000000001
734 5 12.19759197546794 9.758073580374356 8.625
735 2 12.19759197546794 9.758073580374356 12.075
736 3 12.19759197546794 9.758073580374356 15.525
737 4 12.19759197546794 9.758073580374356 22.425
738 1 12.19759197546794 9.758073580374356 25.875
739 1 12.19759197546794 9.758073580374356 29.325
740 4 12.19759197546794 9.75807358037436 32.77500000000001
741 3 12.19759197546794 12.19759197546794 0
742 5 12.19759197546794 12.19759197546794 3.450000000000001
743 5 12.19759197546794 12.19759197546794 10.35
744 4 12.19759197546794 12.19759197546794 13.8
745 1 12.19759197546794 12.19759197546794 17.25
746 2 12.19759197546794 12.19759197546794 24.15000000000001
747 5 12.19759197546794 12.19759197546794 27.6
748 4 12.19759197546794 12.19759197546795 6.900000000000002
749 3 12.19759197546794 12.19759197546795 20.7
750 5 12.19759197546794 12.19759197546795 31.05
751 1 12.19759197546794 14.63711037056153 12.075
752 5 12.19759197546794 14.63711037056153 15.525
753 1 12.19759197546794 14.63711037056153 25.875
754 1 12.19759197546794 14.63711037056153 1.725000000000001
755 5 12.19759197546794 14.63711037056153 8.625
756 2 12.19759197546794 14.63711037056153 22.425
757 2 12.19759197546794 14.63711037056154 5.175000000000001
758 5 12.19759197546794 14.63711037056154 18.975
759 1 12.19759197546794 14.63711037056154 29.325
760 2 12.19759197546794 14.63711037056154 32.775
761 4 12.19759197546794 17.07662876565512 13.8
762 5 12.19759197546794 17.07662876565512 10.35
763 5 12.19759197546794 17.07662876565512 24.15
764 2 12.19759197546794 17.07662876565512 1.915134717478395e-15
765 1 12.19759197546794 17.07662876565512 3.450000000000001
766 1 12.19759197546794 17.07662876565512 6.9
767 3 12.19759197546794 17.07662876565512 17.25
768 4 12.19759197546794 17.07662876565512 20.7
769 4 12.19759197546794 17.07662876565512 27.6
770 4 12.19759197546794 17.07662876565512 31.05
771 1 12.19759197546794 19.51614716074871 1.725000000000001
772 4 12.19759197546794 19.51614716074871 5.175000000000001
773 4 12.19759197546794 19.51614716074871 8.625
774 2 12.19759197546794 19.51614716074871 12.075
775 5 12.19759197546794 19.51614716074871 15.525
776 2 12.19759197546794 19.51614716074871 18.975
777 1 12.19759197546794 19.51614716074871 22.425
778 4 12.19759197546794 19.51614716074871 25.875
779 1 12.19759197546794 19.51614716074871 29.325
780 2 12.19759197546794 19.51614716074871 32.77500000000001
781 5 12.19759197546794 21.9556655558423 0
782 5 12.19759197546794 21.9556655558423 3.450000000000001
783 5 12.19759197546794 21.9556655558423 6.9
784 4 12.19759197546794 21.9556655558423 10.35
785 2 12.19759197546794 21.9556655558423 13.8
786 3 12.19759197546794 21.9556655558423 17.25
787 2 12.19759197546794 21.9556655558423 20.7
788 5 12.19759197546794 21.9556655558423 27.6
789 1 12.19759197546794 21.9556655558423 31.05
790 4 12.19759197546794 21.9556655558423 24.15
791 4 12.19759197546794 24.39518395093589 1.725000000000001
792 3 12.19759197546794 24.39518395093589 5.175000000000001
793 3 12.19759197546794 24.39518395093589 8.625
794 2 12.19759197546794 24.39518395093589 15.525
795 3 12.19759197546794 24.39518395093589 18.975
796 5 12.19759197546794 24.39518395093589 29.325
797 2 12.19759197546794 24.39518395093589 32.77500000000001
798 3 12.19759197546794 24.39518395093589 12.075
799 2 12.19759197546794 24.39518395093589 22.425
800 3 12.19759197546794 24.39518395093589 25.875
801 1 12.19759197546794 26.83470234602947 3.449999999999999
802 3 12.19759197546794 26.83470234602947 6.9
803 4 12.19759197546794 26.83470234602947 17.25
804 2 12.19759197546794 26.83470234602947 31.05
805 1 12.19759197546794 26.83470234602948 0
806 5 12.19759197546794 26.83470234602948 10.35
807 2 12.19759197546794 26.83470234602948 13.8
808 5 12.19759197546794 26.83470234602948 20.7
809 4 12.19759197546794 26.83470234602948 24.15
810 3 12.19759197546794 26.83470234602948 27.6
811 2 12.19759197546794 29.27422074112306 5.175000000000001
812 4 12.19759197546794 29.27422074112306 32.77500000000001
813 5 12.19759197546794 29.27422074112307 1.725
814 1 12.19759197546794 29.27422074112307 8.625
815 4 12.19759197546794 29.27422074112307 12.075
816 1 12.19759197546794 29.27422074112307 15.525
817 2 12.19759197546794 29.27422074112307 22.425
818 2 12.19759197546794 29.27422074112307 25.875
819 1 12.19759197546794 29.27422074112307 29.325
820 1 12.19759197546794 29.27422074112307 18.975
821 3 12.19759197546794 31.71373913621665 0
822 1 12.19759197546794 31.71373913621665 3.449999999999999
823 1 12.19759197546794 31.71373913621665 10.35
824 3 12.19759197546794 31.71373913621665 13.8
825 3 12.19759197546794 31.71373913621665 24.15
826 4 12.19759197546794 31.71373913621665 27.6
827 3 12.19759197546794 31.71373913621665 31.05
828 3 12.19759197546794 31.71373913621666 6.900000000000002
829 3 12.19759197546794 31.71373913621666 17.25
830 4 12.19759197546794 31.71373913621666 20.7
831 2 12.19759197546794 34.15325753131025 1.725000000000001
832 3 12.19759197546794 34.15325753131025 5.175000000000001
833 5 12.19759197546794 34.15325753131025 8.625
834 2 12.19759197546794 34.15325753131025 12.075
835 5 12.19759197546794 34.15325753131025 15.525
836 2 12.19759197546794 34.15325753131025 18.975
837 2 12.19759197546794 34.15325753131025 22.425
838 4 12.19759197546794 34.15325753131025 25.875
839 2 12.19759197546794 34.15325753131025 29.325
840 5 12.19759197546794 34.15325753131025 32.77500000000001
841 1 14.63711037056153 2.439518395093587 5.174999999999999
842 2 14.63711037056153 2.439518395093587 15.525
843 5 14.63711037056153 2.439518395093587 18.975
844 5 14.63711037056153 2.439518395093587 22.425
845 1 14.63711037056153 2.439518395093587 29.325
846 1 14.63711037056153 2.439518395093587 32.775
847 2 14.63711037056153 2.439518395093588 1.725
848 2 14.63711037056153 2.439518395093589 8.625
849 2 14.63711037056153 2.439518395093589 12.075
850 4 14.63711037056153 2.439518395093591 25.875
851 1 14.63711037056153 4.879036790187175 17.25
852 3 14.63711037056153 4.879036790187175 20.7
853 5 14.63711037056153 4.879036790187175 31.05
854 4 14.63711037056153 4.879036790187175 3.449999999999999
855 2 14.63711037056153 4.879036790187176 0
856 2 14.63711037056153 4.879036790187176 6.899999999999999
857 1 14.63711037056153 4.879036790187176 13.8
858 4 14.63711037056153 4.879036790187179 10.35
859 2 14.63711037056153 4.879036790187179 24.15
860 2 14.63711037056153 4.879036790187179 27.6
861 5 14.63711037056153 7.318555185280763 18.975
862 1 14.63711037056153 7.318555185280765 1.724999999999998
863 3 14.63711037056153 7.318555185280765 15.525
864 4 14.63711037056153 7.318555185280766 5.175000000000001
865 5 14.63711037056153 7.318555185280767 8.625
866 4 14.63711037056153 7.318555185280767 12.075
867 2 14.63711037056153 7.318555185280767 22.425
868 3 14.63711037056153 7.318555185280767 25.875
869 2 14.63711037056153 7.318555185280767 29.325
870 3 14.63711037056153 7.318555185280767 32.775
871 4 14.63711037056153 9.758073580374353 17.25
872 2 14.63711037056153 9.758073580374356 3.449999999999999
873 3 14.63711037056153 9.758073580374356 6.899999999999999
874 5 14.63711037056153 9.758073580374356 10.35
875 5 14.63711037056153 9.758073580374356 13.8
876 4 14.63711037056153 9.758073580374356 20.7
877 5 14.63711037056153 9.758073580374356 24.15
878 1 14.63711037056153 9.758073580374356 27.6
879 3 14.63711037056153 9.758073580374356 34.5
880 1 14.63711037056153 9.75807358037436 31.05
881 2 14.63711037056153 12.19759197546794 1.725
882 1 14.63711037056153 12.19759197546794 8.625
883 3 14.63711037056153 12.19759197546794 12.075
884 4 14.63711037056153 12.19759197546794 15.525
885 1 14.63711037056153 12.19759197546794 22.425
886 5 14.63711037056153 12.19759197546794 25.875
887 2 14.63711037056153 12.19759197546795 5.175000000000001
888 1 14.63711037056153 12.19759197546795 18.975
889 2 14.63711037056153 12.19759197546795 29.325
890 1 14.63711037056153 12.19759197546795 32.775
891 4 14.63711037056153 14.63711037056153 10.35
892 4 14.63711037056153 14.63711037056153 13.8
893 3 14.63711037056153 14.63711037056153 24.15
894 2 14.63711037056153 14.63711037056153 0
895 4 14.63711037056153 14.63711037056153 6.899999999999999
896 3 14.63711037056153 14.63711037056153 20.7
897 3 14.63711037056153 14.63711037056154 3.449999999999999
898 1 14.63711037056153 14.63711037056154 17.25
899 4 14.63711037056153 14.63711037056154 27.6
900 4 14.63711037056153 14.63711037056154 31.05
901 4 14.63711037056153 17.07662876565512 12.075
902 5 14.63711037056153 17.07662876565512 8.625
903 1 14.63711037056153 17.07662876565512 22.425
904 1 14.63711037056153 17.07662876565512 1.725
905 4 14.63711037056153 17.07662876565512 5.174999999999999
906 4 14.63711037056153 17.07662876565512 15.525
907 2 14.63711037056153 17.07662876565512 18.975
908 2 14.63711037056153 17.07662876565512 25.875
909 4 14.63711037056153 17.07662876565512 29.325
910 5 14.63711037056153 17.07662876565512 32.775
911 1 14.63711037056153 19.51614716074871 0
912 5 14.63711037056153 19.51614716074871 3.449999999999999
913 4 14.63711037056153 19.51614716074871 6.899999999999999
914 4 14.63711037056153 19.51614716074871 10.35
915 5 14.63711037056153 19.51614716074871 13.8
916 4 14.63711037056153 19.51614716074871 17.25
917 3 14.63711037056153 19.51614716074871 20.7
918 2 14.63711037056153 19.51614716074871 24.15
919 5 14.63711037056153 19.51614716074871 27.6
920 1 14.63711037056153 19.51614716074871 31.05
921 1 14.63711037056153 21.9556655558423 1.725
922 4 14.63711037056153 21.9556655558423 5.174999999999999
923 1 14.63711037056153 21.9556655558423 8.625
924 1 14.63711037056153 21.9556655558423 12.075
925 3 14.63711037056153 21.9556655558423 15.525
926 1 14.63711037056153 21.9556655558423 18.975
927 2 14.63711037056153 21.9556655558423 25.875
928 1 14.63711037056153 21.9556655558423 29.325
929 5 14.63711037056153 21.9556655558423 32.775
930 5 14.63711037056153 21.9556655558423 22.425
931 3 14.63711037056153 24.39518395093589 0
932 1 14.63711037056153 24.39518395093589 3.449999999999999
933 2 14.63711037056153 24.39518395093589 6.899999999999999
934 5 14.63711037056153 24.39518395093589 13.8
935 4 14.63711037056153 24.39518395093589 17.25
936 4 14.63711037056153 24.39518395093589 27.6
937 4 14.63711037056153 24.39518395093589 31.05
938 4 14.63711037056153 24.39518395093589 10.35
939 2 14.63711037056153 24.39518395093589 20.7
940 1 14.63711037056153 24.39518395093589 24.15
941 4 14.63711037056153 26.83470234602947 1.724999999999998
942 2 14.63711037056153 26.83470234602947 5.174999999999999
943 1 14.63711037056153 26.83470234602947 15.525
944 1 14.63711037056153 26.83470234602947 29.325
945 1 14.63711037056153 26.83470234602947 32.775
946 2 14.63711037056153 26.83470234602948 8.625
947 3 14.63711037056153 26.83470234602948 12.075
948 1 14.63711037056153 26.83470234602948 18.975
949 3 14.63711037056153 26.83470234602948 22.425
950 2 14.63711037056153 26.83470234602948 25.875
951 3 14.63711037056153 29.27422074112306 3.449999999999999
952 3 14.63711037056153 29.27422074112306 31.05
953 2 14.63711037056153 29.27422074112307 6.899999999999999
954 1 14.63711037056153 29.27422074112307 10.35
955 3 14.63711037056153 29.27422074112307 13.8
956 1 14.63711037056153 29.27422074112307 20.7
957 5 14.63711037056153 29.27422074112307 24.15
958 3 14.63711037056153 29.27422074112307 27.6
959 4 14.63711037056153 29.27422074112307 34.5
960 4 14.63711037056153 29.27422074112307 17.25
961 5 14.63711037056153 31.71373913621665 32.775
962 2 14.63711037056153 31.71373913621665 1.724999999999998
963 5 14.63711037056153 31.71373913621665 8.625
964 3 14.63711037056153 31.71373913621665 12.075
965 4 14.63711037056153 31.71373913621665 22.425
966 5 14.63711037056153 31.71373913621665 25.875
967 3 14.63711037056153 31.71373913621665 29.325
968 4 14.63711037056153 31.71373913621666 5.175000000000001
969 4 14.63711037056153 31.71373913621666 15.525
970 5 14.63711037056153 31.71373913621666 18.975
971 1 14.63711037056153 34.15325753131025 0
972 2 14.63711037056153 34.15325753131025 3.449999999999999
973 4 14.63711037056153 34.15325753131025 6.899999999999999
974 2 14.63711037056153 34.15325753131025 10.35
975 2 14.63711037056153 34.15325753131025 13.8
976 5 14.63711037056153 34.15325753131025 17.25
977 1 14.63711037056153 34.15325753131025 20.7
978 3 14.63711037056153 34.15325753131025 24.15
979 4 14.63711037056153 34.15325753131025 27.6
980 3 14.63711037056153 34.15325753131025 31.05
981 4 17.07662876565512 2.439518395093587 3.449999999999999
982 3 17.07662876565512 2.439518395093587 13.8
983 4 17.07662876565512 2.439518395093587 17.25
984 2 17.07662876565512 2.439518395093587 20.7
985 1 17.07662876565512 2.439518395093587 27.6
986 4 17.07662876565512 2.439518395093587 31.05
987 5 17.07662876565512 2.439518395093588 0
988 4 17.07662876565512 2.439518395093589 6.9
989 4 17.07662876565512 2.439518395093589 10.35
990 1 17.07662876565512 2.439518395093591 24.15
991 3 17.07662876565512 4.879036790187175 15.525
992 3 17.07662876565512 4.879036790187175 18.975
993 1 17.07662876565512 4.879036790187175 29.325
994 3 17.07662876565512 4.879036790187175 1.725
995 5 17.07662876565512 4.879036790187176 5.174999999999999
996 2 17.07662876565512 4.879036790187176 12.075
997 4 17.07662876565512 4.879036790187179 8.625000000000002
998 1 17.07662876565512 4.879036790187179 22.425
999 2 17.07662876565512 4.879036790187179 25.875
1000 3 17.07662876565512 4.879036790187179 32.77500000000001
1001 3 17.07662876565512 7.318555185280763 17.25
1002 3 17.07662876565512 7.318555185280765 13.8
1003 1 17.07662876565512 7.318555185280765 34.5
1004 4 17.07662876565512 7.318555185280766 3.450000000000001
1005 5 17.07662876565512 7.318555185280767 6.9
1006 5 17.07662876565512 7.318555185280767 10.35
1007 2 17.07662876565512 7.318555185280767 20.7
1008 4 17.07662876565512 7.318555185280767 24.15
1009 5 17.07662876565512 7.318555185280767 27.59999999999999
1010 5 17.07662876565512 7.318555185280767 31.05
1011 2 17.07662876565512 9.758073580374351 15.525
1012 3 17.07662876565512 9.758073580374353 1.725
1013 2 17.07662876565512 9.758073580374353 5.174999999999999
1014 1 17.07662876565512 9.758073580374353 8.625000000000002
1015 4 17.07662876565512 9.758073580374353 12.075
1016 5 17.07662876565512 9.758073580374353 18.975
1017 2 17.07662876565512 9.758073580374353 22.425
1018 2 17.07662876565512 9.758073580374353 25.875
1019 5 17.07662876565512 9.758073580374353 32.775
1020 4 17.07662876565512 9.758073580374358 29.325
1021 5 17.07662876565512 12.19759197546794 0
1022 1 17.07662876565512 12.19759197546794 6.9
1023 2 17.07662876565512 12.19759197546794 10.35
1024 3 17.07662876565512 12.19759197546794 13.8
1025 1 17.07662876565512 12.19759197546794 20.7
1026 5 17.07662876565512 12.19759197546794 24.15
1027 5 17.07662876565512 12.19759197546794 3.450000000000001
1028 1 17.07662876565512 12.19759197546794 17.25
1029 2 17.07662876565512 12.19759197546795 27.6
1030 3 17.07662876565512 12.19759197546795 31.05
1031 1 17.07662876565512 14.63711037056153 8.625000000000002
1032 1 17.07662876565512 14.63711037056153 12.075
1033 3 17.07662876565512 14.63711037056153 22.425
1034 5 17.07662876565512 14.63711037056153 5.174999999999999
1035 5 17.07662876565512 14.63711037056153 18.975
1036 4 17.07662876565512 14.63711037056153 1.725
1037 4 17.07662876565512 14.63711037056153 15.525
1038 1 17.07662876565512 14.63711037056153 25.875
1039 3 17.07662876565512 14.63711037056153 29.325
1040 1 17.07662876565512 14.63711037056153 32.775
1041 4 17.07662876565512 17.07662876565512 10.35
1042 3 17.07662876565512 17.07662876565512 6.9
1043 5 17.07662876565512 17.07662876565512 20.7
1044 5 17.07662876565512 17.07662876565512 0
1045 5 17.07662876565512 17.07662876565512 3.449999999999999
1046 3 17.07662876565512 17.07662876565512 13.8
1047 2 17.07662876565512 17.07662876565512 17.25
1048 1 17.07662876565512 17.07662876565512 24.15
1049 2 17.07662876565512 17.07662876565512 27.59999999999999
1050 2 17.07662876565512 17.07662876565512 31.05
1051 4 17.07662876565512 19.51614716074871 1.725
1052 1 17.07662876565512 19.51614716074871 5.174999999999999
1053 1 17.07662876565512 19.51614716074871 8.624999999999998
1054 2 17.07662876565512 19.51614716074871 12.075
1055 2 17.07662876565512 19.51614716074871 15.525
1056 3 17.07662876565512 19.51614716074871 18.975
1057 4 17.07662876565512 19.51614716074871 22.425
1058 3 17.07662876565512 19.51614716074871 25.875
1059 3 17.07662876565512 19.51614716074871 29.325
1060 1 17.07662876565512 19.51614716074871 32.775
1061 3 17.07662876565512 21.9556655558423 0
1062 1 17.07662876565512 21.9556655558423 3.449999999999999
1063 5 17.07662876565512 21.9556655558423 6.9
1064 4 17.07662876565512 21.9556655558423 10.35
1065 2 17.07662876565512 21.9556655558423 13.8
1066 1 17.07662876565512 21.9556655558423 17.25
1067 2 17.07662876565512 21.9556655558423 24.15
1068 3 17.07662876565512 21.9556655558423 27.6
1069 1 17.07662876565512 21.9556655558423 31.05
1070 4 17.07662876565512 21.9556655558423 20.7
1071 5 17.07662876565512 24.39518395093589 1.725
1072 3 17.07662876565512 24.39518395093589 5.174999999999999
1073 4 17.07662876565512 24.39518395093589 12.075
1074 2 17.07662876565512 24.39518395093589 15.525
1075 5 17.07662876565512 24.39518395093589 25.875
1076 2 17.07662876565512 24.39518395093589 29.325
1077 2 17.07662876565512 24.39518395093589 32.775
1078 2 17.07662876565512 24.39518395093589 8.625000000000002
1079 4 17.07662876565512 24.39518395093589 18.975
1080 1 17.07662876565512 24.39518395093589 22.425
1081 2 17.07662876565512 26.83470234602947 3.449999999999999
1082 5 17.07662876565512 26.83470234602947 13.8
1083 5 17.07662876565512 26.83470234602947 27.6
1084 2 17.07662876565512 26.83470234602947 31.05
1085 5 17.07662876565512 26.83470234602947 34.5
1086 2 17.07662876565512 26.83470234602948 6.9
1087 4 17.07662876565512 26.83470234602948 10.35
1088 2 17.07662876565512 26.83470234602948 17.25
1089 4 17.07662876565512 26.83470234602948 20.7
1090 5 17.07662876565512 26.83470234602948 24.15
1091 4 17.07662876565512 29.27422074112306 1.725
1092 1 17.07662876565512 29.27422074112306 29.325
1093 1 17.07662876565512 29.27422074112306 32.775
1094 4 17.07662876565512 29.27422074112307 5.174999999999999
1095 3 17.07662876565512 29.27422074112307 8.625000000000002
1096 4 17.07662876565512 29.27422074112307 12.075
1097 2 17.07662876565512 29.27422074112307 18.975
1098 3 17.07662876565512 29.27422074112307 22.425
1099 4 17.07662876565512 29.27422074112307 25.875
1100 2 17.07662876565512 29.27422074112307 15.525
1101 5 17.07662876565512 31.71373913621665 31.05
1102 1 17.07662876565512 31.71373913621665 6.9
1103 4 17.07662876565512 31.71373913621665 10.35
1104 4 17.07662876565512 31.71373913621665 20.7
1105 1 17.07662876565512 31.71373913621665 24.15
1106 4 17.07662876565512 31.71373913621665 27.59999999999999
1107 1 17.07662876565512 31.71373913621665 34.5
1108 4 17.07662876565512 31.71373913621666 3.450000000000001
1109 5 17.07662876565512 31.71373913621666 13.8
1110 3 17.07662876565512 31.71373913621666 17.25
1111 2 17.07662876565512 34.15325753131025 1.725
1112 3 17.07662876565512 34.15325753131025 5.174999999999999
1113 2 17.07662876565512 34.15325753131025 8.625000000000002
1114 5 17.07662876565512 34.15325753131025 12.075
1115 2 17.07662876565512 34.15325753131025 15.525
1116 2 17.07662876565512 34.15325753131025 18.975
1117 1 17.07662876565512 34.15325753131025 22.425
1118 1 17.07662876565512 34.15325753131025 25.875
1119 4 17.07662876565512 34.15325753131025 29.325
1120 1 17.07662876565512 34.15325753131025 32.775
1121 3 19.51614716074871 2.439518395093586 1.725
1122 3 19.51614716074871 2.439518395093586 12.075
1123 4 19.51614716074871 2.439518395093586 15.525
1124 5 19.51614716074871 2.439518395093586 18.975
1125 4 19.51614716074871 2.439518395093586 25.875
1126 1 19.51614716074871 2.439518395093586 29.325
1127 5 19.51614716074871 2.439518395093588 5.175000000000001
1128 3 19.51614716074871 2.439518395093588 8.625000000000004
1129 5 19.51614716074871 2.43951839509359 22.425
1130 4 19.51614716074871 2.43951839509359 32.77500000000001
1131 3 19.51614716074871 4.879036790187175 13.8
1132 1 19.51614716074871 4.879036790187175 17.25
1133 4 19.51614716074871 4.879036790187175 27.6
1134 4 19.51614716074871 4.879036790187175 0
1135 1 19.51614716074871 4.879036790187176 3.449999999999999
1136 4 19.51614716074871 4.879036790187176 10.35
1137 4 19.51614716074871 4.879036790187179 6.900000000000002
1138 4 19.51614716074871 4.879036790187179 20.7
1139 2 19.51614716074871 4.879036790187179 24.15
1140 5 19.51614716074871 4.879036790187179 31.05000000000001
1141 1 19.51614716074871 7.318555185280763 15.525
1142 5 19.51614716074871 7.318555185280765 12.075
1143 5 19.51614716074871 7.318555185280766 1.725000000000001
1144 2 19.51614716074871 7.318555185280767 5.175000000000001
1145 2 19.51614716074871 7.318555185280767 8.625
1146 4 19.51614716074871 7.318555185280767 18.975
1147 1 19.51614716074871 7.318555185280767 22.425
1148 4 19.51614716074871 7.318555185280767 25.875
1149 4 19.51614716074871 7.318555185280767 29.325
1150 1 19.51614716074871 7.318555185280767 32.77500000000001
1151 2 19.51614716074871 9.758073580374351 13.8
1152 1 19.51614716074871 9.758073580374353 0
1153 1 19.51614716074871 9.758073580374353 3.449999999999999
1154 2 19.51614716074871 9.758073580374353 6.900000000000002
1155 2 19.51614716074871 9.758073580374353 10.35
1156 2 19.51614716074871 9.758073580374353 17.25
1157 3 19.51614716074871 9.758073580374353 20.7
1158 1 19.51614716074871 9.758073580374353 24.15
1159 3 19.51614716074871 9.758073580374353 31.05
1160 1 19.51614716074871 9.758073580374358 27.6
1161 5 19.51614716074871 12.19759197546794 5.175000000000001
1162 2 19.51614716074871 12.19759197546794 8.625
1163 3 19.51614716074871 12.19759197546794 12.075
1164 2 19.51614716074871 12.19759197546794 18.975
1165 1 19.51614716074871 12.19759197546794 22.425
1166 4 19.51614716074871 12.19759197546794 32.77500000000001
1167 3 19.51614716074871 12.19759197546794 1.725000000000001
1168 1 19.51614716074871 12.19759197546794 15.525
1169 4 19.51614716074871 12.19759197546795 25.875
1170 2 19.51614716074871 12.19759197546795 29.325
1171 3 19.51614716074871 14.63711037056153 6.900000000000002
1172 4 19.51614716074871 14.63711037056153 10.35
1173 5 19.51614716074871 14.63711037056153 20.7
1174 4 19.51614716074871 14.63711037056153 3.449999999999999
1175 2 19.51614716074871 14.63711037056153 17.25
1176 3 19.51614716074871 14.63711037056153 0
1177 3 19.51614716074871 14.63711037056153 13.8
1178 4 19.51614716074871 14.63711037056153 24.15
1179 3 19.51614716074871 14.63711037056153 27.6
1180 3 19.51614716074871 14.63711037056153 31.05
1181 5 19.51614716074871 17.07662876565512 8.625
1182 5 19.51614716074871 17.07662876565512 5.175000000000001
1183 2 19.51614716074871 17.07662876565512 18.975
1184 5 19.51614716074871 17.07662876565512 1.725
1185 3 19.51614716074871 17.07662876565512 12.075
1186 3 19.51614716074871 17.07662876565512 15.525
1187 3 19.51614716074871 17.07662876565512 22.425
1188 1 19.51614716074871 17.07662876565512 25.875
1189 3 19.51614716074871 17.07662876565512 29.325
1190 2 19.51614716074871 17.07662876565512 32.77500000000001
1191 2 19.51614716074871 19.51614716074871 0
1192 1 19.51614716074871 19.51614716074871 3.449999999999999
1193 1 19.51614716074871 19.51614716074871 6.899999999999999
1194 1 19.51614716074871 19.51614716074871 10.35
1195 3 19.51614716074871 19.51614716074871 13.8
1196 4 19.51614716074871 19.51614716074871 17.25
1197 4 19.51614716074871 19.51614716074871 20.7
1198 4 19.51614716074871 19.51614716074871 24.15
1199 1 19.51614716074871 19.51614716074871 27.6
1200 2 19.51614716074871 19.51614716074871 31.05
1201 1 19.51614716074871 21.9556655558423 1.725
1202 2 19.51614716074871 21.9556655558423 5.175000000000001
1203 4 19.51614716074871 21.9556655558423 8.625
1204 2 19.51614716074871 21.9556655558423 12.075
1205 2 19.51614716074871 21.9556655558423 15.525
1206 5 19.51614716074871 21.9556655558423 22.425
1207 5 19.51614716074871 21.9556655558423 25.875
1208 3 19.51614716074871 21.9556655558423 29.325
1209 2 19.51614716074871 21.9556655558423 32.77500000000001
1210 3 19.51614716074871 21.9556655558423 18.975
1211 5 19.51614716074871 24.39518395093589 0
1212 5 19.51614716074871 24.39518395093589 3.449999999999999
1213 5 19.51614716074871 24.39518395093589 10.35
1214 4 19.51614716074871 24.39518395093589 13.8
1215 5 19.51614716074871 24.39518395093589 24.15
1216 2 19.51614716074871 24.39518395093589 27.6
1217 4 19.51614716074871 24.39518395093589 31.05
1218 4 19.51614716074871 24.39518395093589 6.900000000000002
1219 5 19.51614716074871 24.39518395093589 17.25
1220 2 19.51614716074871 24.39518395093589 20.7
1221 1 19.51614716074871 26.83470234602947 1.725
1222 4 19.51614716074871 26.83470234602947 12.075
1223 4 19.51614716074871 26.83470234602947 25.875
1224 4 19.51614716074871 26.83470234602947 29.325
1225 5 19.51614716074871 26.83470234602947 32.77500000000001
1226 3 19.51614716074871 26.83470234602948 5.175000000000001
1227 5 19.51614716074871 26.83470234602948 8.625000000000004
1228 5 19.51614716074871 26.83470234602948 15.525
1229 2 19.51614716074871 26.83470234602948 18.975
1230 4 19.51614716074871 26.83470234602948 22.425
1231 3 19.51614716074871 29.27422074112306 0
1232 5 19.51614716074871 29.27422074112306 27.6
1233 1 19.51614716074871 29.27422074112306 31.05
1234 1 19.51614716074871 29.27422074112307 3.449999999999999
1235 5 19.51614716074871 29.27422074112307 6.900000000000002
1236 1 19.51614716074871 29.27422074112307 10.35
1237 5 19.51614716074871 29.27422074112307 17.25
1238 5 19.51614716074871 29.27422074112307 20.7
1239 5 19.51614716074871 29.27422074112307 24.15
1240 5 19.51614716074871 29.27422074112307 13.8
1241 2 19.51614716074871 31.71373913621665 29.325
1242 1 19.51614716074871 31.71373913621665 32.77500000000001
1243 5 19.51614716074871 31.71373913621665 5.175000000000001
1244 5 19.51614716074871 31.71373913621665 8.625
1245 2 19.51614716074871 31.71373913621665 18.975
1246 5 19.51614716074871 31.71373913621665 22.425
1247 4 19.51614716074871 31.71373913621665 25.875
1248 3 19.51614716074871 31.71373913621666 1.725000000000001
1249 1 19.51614716074871 31.71373913621666 12.075
1250 4 19.51614716074871 31.71373913621666 15.525
1251 1 19.51614716074871 34.15325753131025 0
1252 5 19.51614716074871 34.15325753131025 3.449999999999999
1253 5 19.51614716074871 34.15325753131025 6.900000000000002
1254 4 19.51614716074871 34.15325753131025 10.35
1255 2 19.51614716074871 34.15325753131025 13.8
1256 5 19.51614716074871 34.15325753131025 17.25
1257 5 19.51614716074871 34.15325753131025 20.7
1258 4 19.51614716074871 34.15325753131025 24.15
1259 3 19.51614716074871 34.15325753131025 27.6
1260 4 19.51614716074871 34.15325753131025 31.05
1261 2 21.9556655558423 2.439518395093586 0
1262 1 21.9556655558423 2.439518395093586 10.35
1263 4 21.9556655558423 2.439518395093586 13.8
1264 1 21.9556655558423 2.439518395093586 17.25
1265 1 21.9556655558423 2.439518395093586 24.15000000000001
1266 2 21.9556655558423 2.439518395093586 27.6
1267 4 21.9556655558423 2.439518395093588 3.450000000000001
1268 4 21.9556655558423 2.439518395093588 6.900000000000004
1269 3 21.9556655558423 2.43951839509359 20.7
1270 5 21.9556655558423 2.43951839509359 31.05
1271 1 21.9556655558423 4.879036790187175 12.075
1272 5 21.9556655558423 4.879036790187175 15.525
1273 5 21.9556655558423 4.879036790187175 25.87500000000001
1274 2 21.9556655558423 4.879036790187176 1.725
1275 2 21.9556655558423 4.879036790187176 8.625000000000002
1276 2 21.9556655558423 4.879036790187179 5.175000000000002
1277 1 21.9556655558423 4.879036790187179 18.975
1278 3 21.9556655558423 4.879036790187179 22.425
1279 3 21.9556655558423 4.879036790187179 29.32500000000001
1280 5 21.9556655558423 4.879036790187179 32.775
1281 3 21.9556655558423 7.318555185280763 13.8
1282 5 21.9556655558423 7.318555185280765 10.35
1283 3 21.9556655558423 7.318555185280766 1.915134717478395e-15
1284 3 21.9556655558423 7.318555185280767 3.450000000000001
1285 3 21.9556655558423 7.318555185280767 6.9
1286 3 21.9556655558423 7.318555185280767 17.25
1287 4 21.9556655558423 7.318555185280767 20.7
1288 4 21.9556655558423 7.318555185280767 24.15
1289 3 21.9556655558423 7.318555185280767 27.6
1290 1 21.9556655558423 7.318555185280767 31.05
1291 2 21.9556655558423 9.758073580374351 12.075
1292 1 21.9556655558423 9.758073580374353 1.725
1293 3 21.9556655558423 9.758073580374353 5.175000000000002
1294 5 21.9556655558423 9.758073580374353 8.624999999999998
1295 4 21.9556655558423 9.758073580374353 15.525
1296 3 21.9556655558423 9.758073580374353 18.975
1297 4 21.9556655558423 9.758073580374353 22.425
1298 5 21.9556655558423 9.758073580374353 29.325
1299 5 21.9556655558423 9.758073580374353 32.77500000000001
1300 5 21.9556655558423 9.758073580374358 25.87500000000001
1301 3 21.9556655558423 12.19759197546794 3.450000000000001
1302 2 21.9556655558423 12.19759197546794 6.9
1303 4 21.9556655558423 12.19759197546794 10.35
1304 3 21.9556655558423 12.19759197546794 17.25000000000001
1305 5 21.9556655558423 12.19759197546794 20.7
1306 2 21.9556655558423 12.19759197546794 31.05
1307 1 21.9556655558423 12.19759197546794 1.915134717478395e-15
1308 2 21.9556655558423 12.19759197546794 13.8
1309 2 21.9556655558423 12.19759197546795 24.15000000000001
1310 3 21.9556655558423 12.19759197546795 27.6
1311 3 21.9556655558423 14.63711037056153 5.175000000000002
1312 5 21.9556655558423 14.63711037056153 8.624999999999998
1313 3 21.9556655558423 14.63711037056153 18.975
1314 4 21.9556655558423 14.63711037056153 32.77500000000001
1315 3 21.9556655558423 14.63711037056153 1.725
1316 4 21.9556655558423 14.63711037056153 15.525
1317 1 21.9556655558423 14.63711037056153 12.075
1318 4 21.9556655558423 14.63711037056153 22.425
1319 4 21.9556655558423 14.63711037056153 25.875
1320 4 21.9556655558423 14.63711037056153 29.325
1321 1 21.9556655558423 17.07662876565512 6.9
1322 2 21.9556655558423 17.07662876565512 3.450000000000001
1323 1 21.9556655558423 17.07662876565512 17.25
1324 4 21.9556655558423 17.07662876565512 0
1325 3 21.9556655558423 17.07662876565512 10.35
1326 5 21.9556655558423 17.07662876565512 13.8
1327 4 21.9556655558423 17.07662876565512 20.7
1328 5 21.9556655558423 17.07662876565512 24.15
1329 2 21.9556655558423 17.07662876565512 27.6
1330 5 21.9556655558423 17.07662876565512 31.05
1331 2 21.9556655558423 19.51614716074871 1.725
1332 2 21.9556655558423 19.51614716074871 5.174999999999999
1333 2 21.9556655558423 19.51614716074871 8.625000000000002
1334 5 21.9556655558423 19.51614716074871 12.075
1335 5 21.9556655558423 19.51614716074871 15.525
1336 5 21.9556655558423 19.51614716074871 18.975
1337 5 21.9556655558423 19.51614716074871 22.425
1338 2 21.9556655558423 19.51614716074871 25.87500000000001
1339 2 21.9556655558423 19.51614716074871 29.325
1340 4 21.9556655558423 19.51614716074871 32.775
1341 2 21.9556655558423 21.9556655558423 0
1342 5 21.9556655558423 21.9556655558423 3.450000000000001
1343 4 21.9556655558423 21.9556655558423 6.9
1344 3 21.9556655558423 21.9556655558423 10.35
1345 1 21.9556655558423 21.9556655558423 13.8
1346 3 21.9556655558423 21.9556655558423 20.7
1347 3 21.9556655558423 21.9556655558423 24.15000000000001
1348 3 21.9556655558423 21.9556655558423 27.6
1349 2 21.9556655558423 21.9556655558423 31.05
1350 4 21.9556655558423 21.9556655558423 17.25
1351 3 21.9556655558423 24.39518395093589 1.725
1352 4 21.9556655558423 24.39518395093589 8.625000000000002
1353 2 21.9556655558423 24.39518395093589 12.075
1354 5 21.9556655558423 24.39518395093589 22.425
1355 2 21.9556655558423 24.39518395093589 25.87500000000001
1356 5 21.9556655558423 24.39518395093589 29.325
1357 3 21.9556655558423 24.39518395093589 32.77500000000001
1358 3 21.9556655558423 24.39518395093589 5.175000000000002
1359 5 21.9556655558423 24.39518395093589 15.525
1360 5 21.9556655558423 24.39518395093589 18.975
1361 2 21.9556655558423 26.83470234602947 0
1362 5 21.9556655558423 26.83470234602947 10.35
1363 3 21.9556655558423 26.83470234602947 24.15000000000001
1364 4 21.9556655558423 26.83470234602947 27.6
1365 3 21.9556655558423 26.83470234602947 31.05
1366 4 21.9556655558423 26.83470234602948 3.450000000000001
1367 3 21.9556655558423 26.83470234602948 6.900000000000004
1368 4 21.9556655558423 26.83470234602948 13.8
1369 2 21.9556655558423 26.83470234602948 17.25
1370 3 21.9556655558423 26.83470234602948 20.7
1371 5 21.9556655558423 29.27422074112306 25.87500000000001
1372 3 21.9556655558423 29.27422074112306 29.325
1373 4 21.9556655558423 29.27422074112306 32.775
1374 4 21.9556655558423 29.27422074112307 1.725
1375 3 21.9556655558423 29.27422074112307 5.175000000000002
1376 3 21.9556655558423 29.27422074112307 8.625000000000002
1377 1 21.9556655558423 29.27422074112307 15.525
1378 1 21.9556655558423 29.27422074112307 18.975
1379 5 21.9556655558423 29.27422074112307 22.425
1380 2 21.9556655558423 29.27422074112307 12.075
1381 2 21.9556655558423 31.71373913621665 27.6
1382 5 21.9556655558423 31.71373913621665 31.05
1383 4 21.9556655558423 31.71373913621665 3.450000000000001
1384 2 21.9556655558423 31.71373913621665 6.9
1385 4 21.9556655558423 31.71373913621665 17.25
1386 1 21.9556655558423 31.71373913621665 20.7
1387 3 21.9556655558423 31.71373913621665 24.15
1388 1 21.9556655558423 31.71373913621666 1.915134717478395e-15
1389 3 21.9556655558423 31.71373913621666 10.35
1390 3 21.9556655558423 31.71373913621666 13.8
1391 2 21.9556655558423 34.15325753131025 1.725
1392 4 21.9556655558423 34.15325753131025 5.175000000000002
1393 1 21.9556655558423 34.15325753131025 8.625000000000002
1394 4 21.9556655558423 34.15325753131025 12.075
1395 2 21.9556655558423 34.15325753131025 15.525
1396 4 21.9556655558423 34.15325753131025 18.975
1397 2 21.9556655558423 34.15325753131025 22.425
1398 5 21.9556655558423 34.15325753131025 25.87500000000001
1399 3 21.9556655558423 34.15325753131025 29.325
1400 3 21.9556655558423 34.15325753131025 32.77500000000001
1401 1 24.39518395093589 2.439518395093586 8.625
1402 5 24.39518395093589 2.439518395093586 12.075
1403 5 24.39518395093589 2.439518395093586 15.525
1404 2 24.39518395093589 2.439518395093586 22.425
1405 5 24.39518395093589 2.439518395093586 25.875
1406 3 24.39518395093589 2.439518395093586 32.77500000000001
1407 3 24.39518395093589 2.439518395093588 1.725000000000001
1408 1 24.39518395093589 2.439518395093588 5.175000000000004
1409 2 24.39518395093589 2.43951839509359 18.975
1410 4 24.39518395093589 2.43951839509359 29.325
1411 5 24.39518395093589 4.879036790187174 10.35
1412 3 24.39518395093589 4.879036790187174 13.8
1413 5 24.39518395093589 4.879036790187174 24.15000000000001
1414 2 24.39518395093589 4.879036790187175 0
1415 3 24.39518395093589 4.879036790187175 6.900000000000002
1416 1 24.39518395093589 4.879036790187178 3.450000000000003
1417 3 24.39518395093589 4.879036790187178 17.25
1418 3 24.39518395093589 4.879036790187178 20.7
1419 1 24.39518395093589 4.879036790187178 27.60000000000001
1420 5 24.39518395093589 4.879036790187178 31.05
1421 3 24.39518395093589 7.318555185280761 12.075
1422 1 24.39518395093589 7.318555185280764 8.625
1423 4 24.39518395093589 7.318555185280766 1.725000000000001
1424 5 24.39518395093589 7.318555185280766 5.175000000000001
1425 5 24.39518395093589 7.318555185280766 15.525
1426 4 24.39518395093589 7.318555185280766 18.975
1427 2 24.39518395093589 7.318555185280766 22.425
1428 3 24.39518395093589 7.318555185280766 25.875
1429 3 24.39518395093589 7.318555185280766 29.325
1430 2 24.39518395093589 7.318555185280766 32.77500000000001
1431 1 24.39518395093589 9.758073580374351 10.35
1432 4 24.39518395093589 9.758073580374353 0
1433 2 24.39518395093589 9.758073580374353 3.450000000000003
1434 5 24.39518395093589 9.758073580374353 6.899999999999999
1435 3 24.39518395093589 9.758073580374353 13.8
1436 3 24.39518395093589 9.758073580374353 17.25
1437 5 24.39518395093589 9.758073580374353 20.7
1438 4 24.39518395093589 9.758073580374353 27.6
1439 2 24.39518395093589 9.758073580374353 31.05
1440 5 24.39518395093589 9.758073580374358 24.15000000000001
1441 1 24.39518395093589 12.19759197546794 1.725000000000001
1442 4 24.39518395093589 12.19759197546794 5.175000000000001
1443 4 24.39518395093589 12.19759197546794 8.625
1444 5 24.39518395093589 12.19759197546794 15.52500000000001
1445 2 24.39518395093589 12.19759197546794 18.975
1446 1 24.39518395093589 12.19759197546794 29.325
1447 5 24.39518395093589 12.19759197546794 32.77500000000001
1448 2 24.39518395093589 12.19759197546794 12.075
1449 2 24.39518395093589 12.19759197546795 22.425
1450 3 24.39518395093589 12.19759197546795 25.875
1451 2 24.39518395093589 14.63711037056153 3.450000000000003
1452 2 24.39518395093589 14.63711037056153 6.899999999999999
1453 4 24.39518395093589 14.63711037056153 17.25
1454 1 24.39518395093589 14.63711037056153 31.05
1455 1 24.39518395093589 14.63711037056153 0
1456 5 24.39518395093589 14.63711037056153 13.8
1457 3 24.39518395093589 14.63711037056153 10.35
1458 3 24.39518395093589 14.63711037056153 20.7
1459 5 24.39518395093589 14.63711037056153 24.15
1460 3 24.39518395093589 14.63711037056153 27.6
1461 2 24.39518395093589 17.07662876565512 5.175000000000001
1462 4 24.39518395093589 17.07662876565512 32.77500000000001
1463 2 24.39518395093589 17.07662876565512 1.725000000000001
1464 3 24.39518395093589 17.07662876565512 15.525
1465 1 24.39518395093589 17.07662876565512 8.625
1466 4 24.39518395093589 17.07662876565512 12.075
1467 2 24.39518395093589 17.07662876565512 18.975
1468 2 24.39518395093589 17.07662876565512 22.425
1469 2 24.39518395093589 17.07662876565512 25.875
1470 3 24.39518395093589 17.07662876565512 29.325
1471 4 24.39518395093589 19.51614716074871 0
1472 3 24.39518395093589 19.51614716074871 3.449999999999999
1473 5 24.39518395093589 19.51614716074871 6.900000000000002
1474 1 24.39518395093589 19.51614716074871 10.35
1475 4 24.39518395093589 19.51614716074871 13.8
1476 1 24.39518395093589 19.51614716074871 17.25
1477 1 24.39518395093589 19.51614716074871 20.7
1478 1 24.39518395093589 19.51614716074871 24.15000000000001
1479 3 24.39518395093589 19.51614716074871 27.6
1480 2 24.39518395093589 19.51614716074871 31.05
1481 2 24.39518395093589 21.9556655558423 1.725000000000001
1482 2 24.39518395093589 21.9556655558423 5.175000000000001
1483 3 24.39518395093589 21.9556655558423 8.625000000000004
1484 5 24.39518395093589 21.9556655558423 12.075
1485 5 24.39518395093589 21.9556655558423 18.975
1486 5 24.39518395093589 21.9556655558423 22.425
1487 3 24.39518395093589 21.9556655558423 25.875
1488 3 24.39518395093589 21.9556655558423 29.325
1489 5 24.39518395093589 21.9556655558423 32.77500000000001
1490 1 24.39518395093589 21.9556655558423 15.525
1491 1 24.39518395093589 24.39518395093589 0
1492 3 24.39518395093589 24.39518395093589 6.900000000000002
1493 4 24.39518395093589 24.39518395093589 10.35
1494 2 24.39518395093589 24.39518395093589 20.7
1495 4 24.39518395093589 24.39518395093589 24.15000000000001
1496 2 24.39518395093589 24.39518395093589 27.6
1497 3 24.39518395093589 24.39518395093589 31.05
1498 2 24.39518395093589 24.39518395093589 3.450000000000003
1499 1 24.39518395093589 24.39518395093589 13.8
1500 1 24.39518395093589 24.39518395093589 17.25
1501 3 24.39518395093589 26.83470234602947 8.625
1502 2 24.39518395093589 26.83470234602947 22.425
1503 3 24.39518395093589 26.83470234602947 25.875
1504 1 24.39518395093589 26.83470234602947 29.325
1505 1 24.39518395093589 26.83470234602947 32.775
1506 1 24.39518395093589 26.83470234602948 1.725000000000001
1507 5 24.39518395093589 26.83470234602948 5.175000000000004
1508 1 24.39518395093589 26.83470234602948 12.075
1509 1 24.39518395093589 26.83470234602948 15.525
1510 5 24.39518395093589 26.83470234602948 18.975
1511 4 24.39518395093589 29.27422074112306 24.15000000000001
1512 4 24.39518395093589 29.27422074112306 27.6
1513 4 24.39518395093589 29.27422074112306 31.05
1514 5 24.39518395093589 29.27422074112307 0
1515 3 24.39518395093589 29.27422074112307 3.450000000000003
1516 2 24.39518395093589 29.27422074112307 6.900000000000002
1517 1 24.39518395093589 29.27422074112307 13.8
1518 1 24.39518395093589 29.27422074112307 17.25
1519 3 24.39518395093589 29.27422074112307 20.7
1520 5 24.39518395093589 29.27422074112307 10.35
1521 4 24.39518395093589 31.71373913621665 25.875
1522 5 24.39518395093589 31.71373913621665 29.325
1523 1 24.39518395093589 31.71373913621665 1.725000000000001
1524 4 24.39518395093589 31.71373913621665 5.175000000000001
1525 3 24.39518395093589 31.71373913621665 15.525
1526 4 24.39518395093589 31.71373913621665 18.975
1527 4 24.39518395093589 31.71373913621665 22.425
1528 5 24.39518395093589 31.71373913621666 8.625000000000004
1529 5 24.39518395093589 31.71373913621666 12.075
1530 2 24.39518395093589 31.71373913621666 32.77500000000001
1531 2 24.39518395093589 34.15325753131025 0
1532 2 24.39518395093589 34.15325753131025 3.450000000000003
1533 4 24.39518395093589 34.15325753131025 6.900000000000002
1534 1 24.39518395093589 34.15325753131025 10.35
1535 4 24.39518395093589 34.15325753131025 13.8
1536 2 24.39518395093589 34.15325753131025 17.25
1537 2 24.39518395093589 34.15325753131025 20.7
1538 3 24.39518395093589 34.15325753131025 24.15000000000001
1539 3 24.39518395093589 34.15325753131025 27.6
1540 4 24.39518395093589 34.15325753131025 31.05
1541 4 26.83470234602948 2.439518395093586 6.899999999999999
1542 5 26.83470234602948 2.439518395093586 10.35
1543 5 26.83470234602948 2.439518395093586 13.8
1544 2 26.83470234602948 2.439518395093586 20.7
1545 3 26.83470234602948 2.439518395093586 24.15
1546 3 26.83470234602948 2.439518395093586 31.05
1547 2 26.83470234602948 2.439518395093588 0
1548 3 26.83470234602948 2.439518395093588 3.450000000000003
1549 2 26.83470234602948 2.43951839509359 17.25
1550 3 26.83470234602948 2.43951839509359 27.6
1551 1 26.83470234602948 4.879036790187174 8.625
1552 5 26.83470234602948 4.879036790187174 12.075
1553 5 26.83470234602948 4.879036790187174 22.425
1554 5 26.83470234602948 4.879036790187174 32.775
1555 2 26.83470234602948 4.879036790187175 5.175000000000001
1556 3 26.83470234602948 4.879036790187178 1.725000000000001
1557 5 26.83470234602948 4.879036790187178 15.525
1558 3 26.83470234602948 4.879036790187178 18.975
1559 3 26.83470234602948 4.879036790187178 25.87500000000001
1560 2 26.83470234602948 4.879036790187178 29.325
1561 4 26.83470234602948 7.318555185280761 10.35
1562 3 26.83470234602948 7.318555185280764 6.899999999999999
1563 2 26.83470234602948 7.318555185280766 0
1564 3 26.83470234602948 7.318555185280766 3.449999999999999
1565 5 26.83470234602948 7.318555185280766 13.8
1566 5 26.83470234602948 7.318555185280766 17.25
1567 4 26.83470234602948 7.318555185280766 20.7
1568 5 26.83470234602948 7.318555185280766 24.15
1569 1 26.83470234602948 7.318555185280766 27.6
1570 4 26.83470234602948 7.318555185280766 31.05
1571 4 26.83470234602948 9.758073580374351 8.625
1572 1 26.83470234602948 9.758073580374353 1.725000000000001
1573 2 26.83470234602948 9.758073580374353 5.174999999999997
1574 4 26.83470234602948 9.758073580374353 12.075
1575 2 26.83470234602948 9.758073580374353 15.525
1576 1 26.83470234602948 9.758073580374353 18.975
1577 5 26.83470234602948 9.758073580374353 25.875
1578 1 26.83470234602948 9.758073580374353 29.325
1579 5 26.83470234602948 9.758073580374353 32.775
1580 2 26.83470234602948 9.758073580374358 22.425
1581 3 26.83470234602948 12.19759197546794 0
1582 3 26.83470234602948 12.19759197546794 3.449999999999999
1583 1 26.83470234602948 12.19759197546794 6.899999999999999
1584 2 26.83470234602948 12.19759197546794 13.8
1585 5 26.83470234602948 12.19759197546794 17.25
1586 3 26.83470234602948 12.19759197546794 27.6
1587 1 26.83470234602948 12.19759197546794 31.05
1588 3 26.83470234602948 12.19759197546794 10.35
1589 2 26.83470234602948 12.19759197546795 20.7
1590 4 26.83470234602948 12.19759197546795 24.15
1591 2 26.83470234602948 14.63711037056153 1.725000000000001
1592 2 26.83470234602948 14.63711037056153 5.174999999999997
1593 1 26.83470234602948 14.63711037056153 15.525
1594 1 26.83470234602948 14.63711037056153 29.325
1595 3 26.83470234602948 14.63711037056153 32.775
1596 2 26.83470234602948 14.63711037056153 12.075
1597 1 26.83470234602948 14.63711037056153 8.625
1598 4 26.83470234602948 14.63711037056153 18.975
1599 2 26.83470234602948 14.63711037056153 22.425
1600 5 26.83470234602948 14.63711037056153 25.875
1601 2 26.83470234602948 17.07662876565512 3.449999999999999
1602 1 26.83470234602948 17.07662876565512 31.05
1603 1 26.83470234602948 17.07662876565512 0
1604 1 26.83470234602948 17.07662876565512 13.8
1605 2 26.83470234602948 17.07662876565512 6.899999999999999
1606 2 26.83470234602948 17.07662876565512 10.35
1607 4 26.83470234602948 17.07662876565512 17.25
1608 1 26.83470234602948 17.07662876565512 20.7
1609 1 26.83470234602948 17.07662876565512 24.15
1610 3 26.83470234602948 17.07662876565512 27.6
1611 4 26.83470234602948 19.51614716074871 32.775
1612 4 26.83470234602948 19.51614716074871 1.724999999999998
1613 2 26.83470234602948 19.51614716074871 5.175000000000001
1614 3 26.83470234602948 19.51614716074871 8.625
1615 2 26.83470234602948 19.51614716074871 12.075
1616 2 26.83470234602948 19.51614716074871 15.525
1617 5 26.83470234602948 19.51614716074871 18.975
1618 2 26.83470234602948 19.51614716074871 22.425
1619 4 26.83470234602948 19.51614716074871 25.875
1620 1 26.83470234602948 19.51614716074871 29.325
1621 5 26.83470234602948 21.9556655558423 0
1622 2 26.83470234602948 21.9556655558423 3.449999999999999
1623 4 26.83470234602948 21.9556655558423 6.900000000000002
1624 5 26.83470234602948 21.9556655558423 10.35
1625 5 26.83470234602948 21.9556655558423 17.25
1626 5 26.83470234602948 21.9556655558423 20.7
1627 5 26.83470234602948 21.9556655558423 24.15
1628 4 26.83470234602948 21.9556655558423 27.6
1629 3 26.83470234602948 21.9556655558423 31.05
1630 2 26.83470234602948 21.9556655558423 13.8
1631 5 26.83470234602948 24.39518395093589 5.175000000000001
1632 5 26.83470234602948 24.39518395093589 8.625
1633 1 26.83470234602948 24.39518395093589 18.975
1634 4 26.83470234602948 24.39518395093589 22.425
1635 4 26.83470234602948 24.39518395093589 25.875
1636 2 26.83470234602948 24.39518395093589 29.325
1637 5 26.83470234602948 24.39518395093589 32.775
1638 4 26.83470234602948 24.39518395093589 1.725000000000001
1639 5 26.83470234602948 24.39518395093589 12.075
1640 4 26.83470234602948 24.39518395093589 15.525
1641 3 26.83470234602948 26.83470234602947 6.899999999999999
1642 2 26.83470234602948 26.83470234602947 20.7
1643 5 26.83470234602948 26.83470234602947 24.15
1644 5 26.83470234602948 26.83470234602947 27.6
1645 5 26.83470234602948 26.83470234602947 31.05
1646 1 26.83470234602948 26.83470234602948 0
1647 2 26.83470234602948 26.83470234602948 3.450000000000003
1648 1 26.83470234602948 26.83470234602948 10.35
1649 4 26.83470234602948 26.83470234602948 13.8
1650 5 26.83470234602948 26.83470234602948 17.25
1651 1 26.83470234602948 29.27422074112306 22.425
1652 4 26.83470234602948 29.27422074112306 25.875
1653 2 26.83470234602948 29.27422074112306 29.325
1654 1 26.83470234602948 29.27422074112307 1.725000000000001
1655 3 26.83470234602948 29.27422074112307 5.175000000000001
1656 4 26.83470234602948 29.27422074112307 12.075
1657 5 26.83470234602948 29.27422074112307 15.525
1658 5 26.83470234602948 29.27422074112307 18.975
1659 4 26.83470234602948 29.27422074112307 8.625
1660 3 26.83470234602948 29.27422074112307 32.775
1661 1 26.83470234602948 31.71373913621665 24.15
1662 1 26.83470234602948 31.71373913621665 27.6
1663 2 26.83470234602948 31.71373913621665 0
1664 3 26.83470234602948 31.71373913621665 3.449999999999999
1665 2 26.83470234602948 31.71373913621665 13.8
1666 3 26.83470234602948 31.71373913621665 17.25
1667 2 26.83470234602948 31.71373913621665 20.7
1668 5 26.83470234602948 31.71373913621666 6.900000000000002
1669 1 26.83470234602948 31.71373913621666 10.35
1670 3 26.83470234602948 31.71373913621666 31.05
1671 5 26.83470234602948 34.15325753131025 1.725000000000001
1672 3 26.83470234602948 34.15325753131025 5.175000000000001
1673 5 26.83470234602948 34.15325753131025 8.625
1674 4 26.83470234602948 34.15325753131025 12.075
1675 3 26.83470234602948 34.15325753131025 15.525
1676 5 26.83470234602948 34.15325753131025 18.975
1677 3 26.83470234602948 34.15325753131025 22.425
1678 1 26.83470234602948 34.15325753131025 25.875
1679 3 26.83470234602948 34.15325753131025 29.325
1680 5 26.83470234602948 34.15325753131025 32.775
1681 3 29.27422074112307 2.439518395093586 5.174999999999997
1682 5 29.27422074112307 2.439518395093586 8.625
1683 2 29.27422074112307 2.439518395093586 12.075
1684 4 29.27422074112307 2.439518395093586 18.975
1685 3 29.27422074112307 2.439518395093586 22.425
1686 1 29.27422074112307 2.439518395093586 29.325
1687 2 29.27422074112307 2.439518395093586 32.775
1688 2 29.27422074112307 2.439518395093588 1.725000000000001
1689 4 29.27422074112307 2.43951839509359 15.525
1690 2 29.27422074112307 2.43951839509359 25.875
1691 5 29.27422074112307 4.879036790187174 6.899999999999999
1692 2 29.27422074112307 4.879036790187174 10.35
1693 2 29.27422074112307 4.879036790187174 20.7
1694 1 29.27422074112307 4.879036790187174 31.05
1695 2 29.27422074112307 4.879036790187175 3.449999999999999
1696 3 29.27422074112307 4.879036790187178 0
1697 1 29.27422074112307 4.879036790187178 13.8
1698 1 29.27422074112307 4.879036790187178 17.25
1699 3 29.27422074112307 4.879036790187178 24.15000000000001
1700 2 29.27422074112307 4.879036790187178 27.59999999999999
1701 4 29.27422074112307 7.318555185280761 8.625
1702 1 29.27422074112307 7.318555185280761 32.77500000000001
1703 5 29.27422074112307 7.318555185280764 5.174999999999997
1704 3 29.27422074112307 7.318555185280766 1.724999999999998
1705 2 29.27422074112307 7.318555185280766 12.075
1706 4 29.27422074112307 7.318555185280766 15.525
1707 4 29.27422074112307 7.318555185280766 18.97499999999999
1708 1 29.27422074112307 7.318555185280766 22.425
1709 1 29.27422074112307 7.318555185280766 25.875
1710 3 29.27422074112307 7.318555185280766 29.325
1711 4 29.27422074112307 9.758073580374351 6.899999999999999
1712 4 29.27422074112307 9.758073580374353 0
1713 3 29.27422074112307 9.758073580374353 3.449999999999995
1714 3 29.27422074112307 9.758073580374353 10.35
1715 4 29.27422074112307 9.758073580374353 13.8
1716 5 29.27422074112307 9.758073580374353 17.25
1717 2 29.27422074112307 9.758073580374353 24.15
1718 2 29.27422074112307 9.758073580374353 27.6
1719 3 29.27422074112307 9.758073580374353 31.05
1720 1 29.27422074112307 9.758073580374358 20.7
1721 2 29.27422074112307 12.19759197546794 1.724999999999998
1722 3 29.27422074112307 12.19759197546794 5.174999999999997
1723 3 29.27422074112307 12.19759197546794 12.075
1724 3 29.27422074112307 12.19759197546794 15.525
1725 1 29.27422074112307 12.19759197546794 25.875
1726 1 29.27422074112307 12.19759197546794 29.325
1727 2 29.27422074112307 12.19759197546794 32.775
1728 3 29.27422074112307 12.19759197546794 8.625
1729 4 29.27422074112307 12.19759197546795 18.975
1730 1 29.27422074112307 12.19759197546795 22.425
1731 3 29.27422074112307 14.63711037056153 0
1732 2 29.27422074112307 14.63711037056153 3.449999999999995
1733 2 29.27422074112307 14.63711037056153 13.8
1734 3 29.27422074112307 14.63711037056153 27.6
1735 2 29.27422074112307 14.63711037056153 31.05
1736 2 29.27422074112307 14.63711037056153 10.35
1737 1 29.27422074112307 14.63711037056153 6.899999999999999
1738 1 29.27422074112307 14.63711037056153 17.25
1739 5 29.27422074112307 14.63711037056153 20.7
1740 5 29.27422074112307 14.63711037056153 24.15
1741 3 29.27422074112307 17.07662876565512 1.724999999999998
1742 2 29.27422074112307 17.07662876565512 29.325
1743 5 29.27422074112307 17.07662876565512 32.77500000000001
1744 4 29.27422074112307 17.07662876565512 12.075
1745 2 29.27422074112307 17.07662876565512 5.174999999999997
1746 3 29.27422074112307 17.07662876565512 8.625
1747 1 29.27422074112307 17.07662876565512 15.525
1748 2 29.27422074112307 17.07662876565512 18.97499999999999
1749 5 29.27422074112307 17.07662876565512 22.425
1750 3 29.27422074112307 17.07662876565512 25.875
1751 4 29.27422074112307 19.51614716074871 31.05
1752 2 29.27422074112307 19.51614716074871 3.449999999999999
1753 4 29.27422074112307 19.51614716074871 6.899999999999999
1754 4 29.27422074112307 19.51614716074871 10.35
1755 2 29.27422074112307 19.51614716074871 13.8
1756 3 29.27422074112307 19.51614716074871 17.25
1757 3 29.27422074112307 19.51614716074871 20.7
1758 3 29.27422074112307 19.51614716074871 24.15
1759 5 29.27422074112307 19.51614716074871 27.59999999999999
1760 4 29.27422074112307 19.51614716074871 34.49999999999999
1761 2 29.27422074112307 21.95566555584229 32.775
1762 4 29.27422074112307 21.9556655558423 1.724999999999998
1763 5 29.27422074112307 21.9556655558423 5.175000000000001
1764 5 29.27422074112307 21.9556655558423 8.625
1765 1 29.27422074112307 21.9556655558423 15.525
1766 5 29.27422074112307 21.9556655558423 18.975
1767 4 29.27422074112307 21.9556655558423 22.425
1768 5 29.27422074112307 21.9556655558423 25.875
1769 3 29.27422074112307 21.9556655558423 29.325
1770 4 29.27422074112307 21.9556655558423 12.075
1771 2 29.27422074112307 24.39518395093589 3.449999999999999
1772 5 29.27422074112307 24.39518395093589 6.899999999999999
1773 1 29.27422074112307 24.39518395093589 17.25
1774 2 29.27422074112307 24.39518395093589 20.7
1775 1 29.27422074112307 24.39518395093589 24.15
1776 4 29.27422074112307 24.39518395093589 27.6
1777 3 29.27422074112307 24.39518395093589 31.05
1778 4 29.27422074112307 24.39518395093589 0
1779 1 29.27422074112307 24.39518395093589 10.35
1780 1 29.27422074112307 24.39518395093589 13.8
1781 5 29.27422074112307 26.83470234602947 5.174999999999997
1782 2 29.27422074112307 26.83470234602947 18.975
1783 5 29.27422074112307 26.83470234602947 22.425
1784 5 29.27422074112307 26.83470234602947 25.875
1785 1 29.27422074112307 26.83470234602947 29.325
1786 3 29.27422074112307 26.83470234602948 1.725000000000001
1787 1 29.27422074112307 26.83470234602948 8.625
1788 1 29.27422074112307 26.83470234602948 12.075
1789 3 29.27422074112307 26.83470234602948 15.525
1790 4 29.27422074112307 26.83470234602948 32.775
1791 4 29.27422074112307 29.27422074112306 20.7
1792 5 29.27422074112307 29.27422074112306 24.15
1793 2 29.27422074112307 29.27422074112306 27.59999999999999
1794 1 29.27422074112307 29.27422074112307 0
1795 4 29.27422074112307 29.27422074112307 3.449999999999999
1796 3 29.27422074112307 29.27422074112307 10.35
1797 3 29.27422074112307 29.27422074112307 13.8
1798 3 29.27422074112307 29.27422074112307 17.25
1799 4 29.27422074112307 29.27422074112307 6.899999999999999
1800 4 29.27422074112307 29.27422074112307 31.05
1801 2 29.27422074112307 31.71373913621665 22.425
1802 2 29.27422074112307 31.71373913621665 25.875
1803 4 29.27422074112307 31.71373913621665 1.724999999999998
1804 5 29.27422074112307 31.71373913621665 12.075
1805 3 29.27422074112307 31.71373913621665 15.525
1806 1 29.27422074112307 31.71373913621665 18.97499999999999
1807 3 29.27422074112307 31.71373913621666 5.175000000000001
1808 2 29.27422074112307 31.71373913621666 8.624999999999996
1809 1 29.27422074112307 31.71373913621666 29.325
1810 2 29.27422074112307 31.71373913621666 32.775
1811 3 29.27422074112307 34.15325753131025 0
1812 3 29.27422074112307 34.15325753131025 3.449999999999999
1813 1 29.27422074112307 34.15325753131025 6.899999999999999
1814 2 29.27422074112307 34.15325753131025 10.35
1815 4 29.27422074112307 34.15325753131025 13.8
1816 1 29.27422074112307 34.15325753131025 17.25
1817 5 29.27422074112307 34.15325753131025 20.7
1818 5 29.27422074112307 34.15325753131025 24.15
1819 1 29.27422074112307 34.15325753131025 27.6
1820 4 29.27422074112307 34.15325753131025 31.05
1821 5 31.71373913621665 2.439518395093586 3.449999999999999
1822 2 31.71373913621665 2.439518395093586 6.900000000000002
1823 5 31.71373913621665 2.439518395093586 10.35
1824 1 31.71373913621665 2.439518395093586 17.25
1825 2 31.71373913621665 2.439518395093586 20.7
1826 2 31.71373913621665 2.439518395093586 27.6
1827 5 31.71373913621665 2.439518395093586 31.05
1828 1 31.71373913621665 2.439518395093588 3.83026943495679e-15
1829 5 31.71373913621665 2.43951839509359 13.8
1830 1 31.71373913621665 2.43951839509359 24.15
1831 4 31.71373913621665 4.879036790187174 5.175000000000001
1832 3 31.71373913621665 4.879036790187174 8.625
1833 4 31.71373913621665 4.879036790187174 18.975
1834 5 31.71373913621665 4.879036790187174 29.325
1835 5 31.71373913621665 4.879036790187174 32.77500000000001
1836 2 31.71373913621665 4.879036790187175 1.725000000000001
1837 1 31.71373913621665 4.879036790187178 12.075
1838 4 31.71373913621665 4.879036790187178 15.525
1839 4 31.71373913621665 4.879036790187178 22.42500000000001
1840 4 31.71373913621665 4.879036790187178 25.875
1841 4 31.71373913621665 7.318555185280761 6.900000000000002
1842 5 31.71373913621665 7.318555185280761 31.05000000000001
1843 1 31.71373913621665 7.318555185280764 3.449999999999999
1844 1 31.71373913621665 7.318555185280766 0
1845 2 31.71373913621665 7.318555185280766 10.35
1846 2 31.71373913621665 7.318555185280766 13.8
1847 2 31.71373913621665 7.318555185280766 17.25
1848 5 31.71373913621665 7.318555185280766 20.7
1849 5 31.71373913621665 7.318555185280766 24.15
1850 2 31.71373913621665 7.318555185280766 27.6
1851 1 31.71373913621665 9.758073580374349 32.77500000000001
1852 4 31.71373913621665 9.758073580374351 5.175000000000001
1853 2 31.71373913621665 9.758073580374353 1.724999999999998
1854 2 31.71373913621665 9.758073580374353 8.625000000000004
1855 2 31.71373913621665 9.758073580374353 12.075
1856 3 31.71373913621665 9.758073580374353 15.525
1857 4 31.71373913621665 9.758073580374353 22.425
1858 2 31.71373913621665 9.758073580374353 25.875
1859 5 31.71373913621665 9.758073580374353 29.325
1860 5 31.71373913621665 9.758073580374358 18.975
1861 1 31.71373913621665 12.19759197546794 0
1862 3 31.71373913621665 12.19759197546794 3.449999999999999
1863 3 31.71373913621665 12.19759197546794 10.35
1864 1 31.71373913621665 12.19759197546794 13.8
1865 4 31.71373913621665 12.19759197546794 24.15
1866 2 31.71373913621665 12.19759197546794 27.6
1867 2 31.71373913621665 12.19759197546794 31.05
1868 4 31.71373913621665 12.19759197546794 6.900000000000002
1869 1 31.71373913621665 12.19759197546795 17.25
1870 5 31.71373913621665 12.19759197546795 20.7
1871 3 31.71373913621665 14.63711037056153 1.724999999999998
1872 3 31.71373913621665 14.63711037056153 12.075
1873 2 31.71373913621665 14.63711037056153 25.875
1874 1 31.71373913621665 14.63711037056153 29.325
1875 2 31.71373913621665 14.63711037056153 32.77500000000001
1876 5 31.71373913621665 14.63711037056153 8.625000000000004
1877 1 31.71373913621665 14.63711037056153 5.175000000000001
1878 1 31.71373913621665 14.63711037056153 15.525
1879 1 31.71373913621665 14.63711037056153 18.975
1880 5 31.71373913621665 14.63711037056153 22.425
1881 3 31.71373913621665 17.07662876565512 0
1882 1 31.71373913621665 17.07662876565512 27.6
1883 3 31.71373913621665 17.07662876565512 31.05000000000001
1884 3 31.71373913621665 17.07662876565512 10.35
1885 2 31.71373913621665 17.07662876565512 3.449999999999999
1886 1 31.71373913621665 17.07662876565512 6.900000000000002
1887 2 31.71373913621665 17.07662876565512 13.8
1888 4 31.71373913621665 17.07662876565512 17.25
1889 2 31.71373913621665 17.07662876565512 20.7
1890 4 31.71373913621665 17.07662876565512 24.15
1891 3 31.71373913621665 19.5161471607487 29.325
1892 4 31.71373913621665 19.5161471607487 32.77500000000001
1893 3 31.71373913621665 19.51614716074871 1.725000000000001
1894 4 31.71373913621665 19.51614716074871 5.175000000000001
1895 1 31.71373913621665 19.51614716074871 8.625
1896 3 31.71373913621665 19.51614716074871 12.075
1897 1 31.71373913621665 19.51614716074871 15.525
1898 5 31.71373913621665 19.51614716074871 18.975
1899 4 31.71373913621665 19.51614716074871 22.425
1900 2 31.71373913621665 19.51614716074871 25.875
1901 2 31.71373913621665 21.95566555584229 31.05
1902 5 31.71373913621665 21.95566555584229 0
1903 5 31.71373913621665 21.95566555584229 3.450000000000003
1904 4 31.71373913621665 21.95566555584229 6.900000000000002
1905 1 31.71373913621665 21.95566555584229 13.8
1906 3 31.71373913621665 21.95566555584229 17.25
1907 4 31.71373913621665 21.95566555584229 20.7
1908 3 31.71373913621665 21.95566555584229 24.15
1909 2 31.71373913621665 21.95566555584229 27.6
1910 5 31.71373913621665 21.9556655558423 10.35
1911 2 31.71373913621665 24.39518395093588 1.725000000000001
1912 4 31.71373913621665 24.39518395093588 5.175000000000001
1913 3 31.71373913621665 24.39518395093588 15.525
1914 3 31.71373913621665 24.39518395093588 18.975
1915 2 31.71373913621665 24.39518395093588 22.425
1916 1 31.71373913621665 24.39518395093588 25.875
1917 5 31.71373913621665 24.39518395093588 29.325
1918 1 31.71373913621665 24.39518395093589 8.625000000000004
1919 4 31.71373913621665 24.39518395093589 12.075
1920 1 31.71373913621665 24.39518395093589 32.77500000000001
1921 5 31.71373913621665 26.83470234602947 3.449999999999999
1922 3 31.71373913621665 26.83470234602947 17.25
1923 1 31.71373913621665 26.83470234602947 20.7
1924 1 31.71373913621665 26.83470234602947 24.15
1925 4 31.71373913621665 26.83470234602947 27.6
1926 3 31.71373913621665 26.83470234602947 3.83026943495679e-15
1927 5 31.71373913621665 26.83470234602947 6.900000000000002
1928 1 31.71373913621665 26.83470234602947 10.35
1929 5 31.71373913621665 26.83470234602947 13.8
1930 3 31.71373913621665 26.83470234602948 31.05
1931 3 31.71373913621665 29.27422074112306 18.975
1932 1 31.71373913621665 29.27422074112306 22.425
1933 2 31.71373913621665 29.27422074112306 25.875
1934 5 31.71373913621665 29.27422074112306 1.725000000000001
1935 4 31.71373913621665 29.27422074112306 8.625
1936 3 31.71373913621665 29.27422074112306 12.075
1937 5 31.71373913621665 29.27422074112306 15.525
1938 3 31.71373913621665 29.27422074112307 5.175000000000001
1939 1 31.71373913621665 29.27422074112307 29.325
1940 1 31.71373913621665 29.27422074112307 32.77500000000001
1941 1 31.71373913621665 31.71373913621665 20.7
1942 3 31.71373913621665 31.71373913621665 24.15
1943 5 31.71373913621665 31.71373913621665 0
1944 3 31.71373913621665 31.71373913621665 10.35
1945 4 31.71373913621665 31.71373913621665 13.8
1946 2 31.71373913621665 31.71373913621665 17.25
1947 1 31.71373913621665 31.71373913621665 3.450000000000003
1948 2 31.71373913621665 31.71373913621665 6.899999999999999
1949 4 31.71373913621665 31.71373913621665 27.6
1950 4 31.71373913621665 31.71373913621665 31.05
1951 4 31.71373913621665 34.15325753131024 1.725000000000001
1952 5 31.71373913621665 34.15325753131024 5.175000000000001
1953 3 31.71373913621665 34.15325753131024 8.625
1954 2 31.71373913621665 34.15325753131024 12.075
1955 4 31.71373913621665 34.15325753131024 15.525
1956 4 31.71373913621665 34.15325753131024 18.975
1957 1 31.71373913621665 34.15325753131024 22.425
1958 4 31.71373913621665 34.15325753131024 25.875
1959 2 31.71373913621665 34.15325753131024 29.325
1960 5 31.71373913621665 34.15325753131024 32.77500000000001
