# BCC equiatomic HfMoTaTiZr; profile=compact; x=[111]; seed=20260825

1980 atoms
5 atom types

0.0 32.86566407361945 xlo xhi
0.0 29.27422074112307 ylo yhi
0.0 42.25369806300982 zlo zhi
0 0 0 xy xz yz

Masses

1 178.49 # Hf
2 95.95 # Mo
3 180.94788 # Ta
4 47.867 # Ti
5 91.224 # Zr

Atoms # atomic

1 1 0 0 0
2 3 0 0 8.450739612601964
3 4 0 0 16.90147922520393
4 3 0 0 25.3522188378059
5 3 0 0 33.80295845040786
6 2 0 2.439518395093589 38.02832825670883
7 4 0 2.439518395093589 12.67610941890295
8 3 0 2.439518395093589 21.12684903150491
9 5 0 4.879036790187177 33.80295845040786
10 5 0 4.879036790187178 25.3522188378059
11 3 0 4.879036790187179 16.90147922520393
12 1 0 7.318555185280768 21.12684903150491
13 1 0 7.318555185280768 38.02832825670884
14 5 0 9.758073580374358 33.80295845040786
15 5 1.140256780441504e-16 2.439518395093589 4.225369806300982
16 2 2.280513560883008e-16 4.879036790187178 8.450739612601964
17 3 3.420770341324512e-16 4.879036790187178 0
18 3 4.561027121766016e-16 7.318555185280768 4.225369806300982
19 3 4.561027121766016e-16 7.318555185280768 12.67610941890295
20 5 4.561027121766016e-16 9.758073580374356 16.90147922520393
21 4 6.841540682649024e-16 9.758073580374356 0
22 1 6.841540682649024e-16 9.758073580374356 8.450739612601964
23 5 9.122054243532032e-16 7.318555185280767 29.57758864410687
24 3 9.122054243532032e-16 9.758073580374356 25.35221883780589
25 3 9.122054243532032e-16 12.19759197546795 4.225369806300982
26 5 9.122054243532032e-16 12.19759197546795 12.67610941890295
27 4 9.122054243532032e-16 12.19759197546795 21.12684903150491
28 5 9.122054243532032e-16 12.19759197546795 29.57758864410687
29 2 9.122054243532032e-16 14.63711037056153 16.90147922520393
30 1 9.122054243532032e-16 14.63711037056153 33.80295845040786
31 3 9.122054243532032e-16 14.63711037056154 8.450739612601964
32 4 9.122054243532032e-16 14.63711037056154 25.3522188378059
33 4 9.122054243532032e-16 17.07662876565512 29.57758864410687
34 2 9.122054243532032e-16 17.07662876565513 21.12684903150491
35 1 9.122054243532032e-16 19.51614716074871 25.3522188378059
36 3 9.122054243532032e-16 19.51614716074871 33.80295845040786
37 2 9.122054243532032e-16 21.9556655558423 21.12684903150491
38 1 9.122054243532032e-16 21.9556655558423 29.57758864410687
39 5 9.122054243532032e-16 24.39518395093589 33.80295845040786
40 2 9.122054243532032e-16 26.83470234602948 29.57758864410687
41 5 1.368308136529805e-15 14.63711037056154 0
42 1 1.368308136529805e-15 17.07662876565512 4.225369806300982
43 3 1.368308136529805e-15 17.07662876565512 12.67610941890295
44 3 1.368308136529805e-15 19.51614716074871 0
45 2 1.368308136529805e-15 19.51614716074871 16.90147922520393
46 5 1.824410848706406e-15 12.19759197546795 38.02832825670883
47 1 1.824410848706406e-15 17.07662876565512 38.02832825670883
48 4 1.824410848706406e-15 19.51614716074871 8.450739612601964
49 1 1.824410848706406e-15 21.9556655558423 4.225369806300982
50 4 1.824410848706406e-15 21.9556655558423 12.67610941890295
51 3 1.824410848706406e-15 21.9556655558423 38.02832825670883
52 5 1.824410848706406e-15 24.39518395093589 0
53 4 1.824410848706406e-15 24.39518395093589 8.450739612601964
54 5 1.824410848706406e-15 24.39518395093589 16.90147922520393
55 1 1.824410848706406e-15 24.39518395093589 25.3522188378059
56 2 1.824410848706406e-15 26.83470234602948 12.67610941890295
57 3 1.824410848706406e-15 26.83470234602948 4.225369806300983
58 2 1.824410848706406e-15 26.83470234602948 21.12684903150491
59 5 3.648821697412813e-15 26.83470234602948 38.02832825670883
60 2 0.9959292143521036 2.439518395093589 26.76067543990622
61 4 0.9959292143521036 2.439518395093589 35.21141505250818
62 1 0.9959292143521036 7.318555185280768 35.21141505250819
63 5 0.9959292143521046 0 5.633826408401309
64 5 0.9959292143521046 0 14.08456602100328
65 2 0.9959292143521046 0 22.53530563360524
66 5 0.9959292143521046 0 30.9860452462072
67 1 0.9959292143521046 2.439518395093589 9.859196214702292
68 1 0.9959292143521046 2.439518395093589 18.30993582730426
69 1 0.9959292143521046 4.879036790187177 30.9860452462072
70 3 0.9959292143521046 4.879036790187178 22.53530563360524
71 2 0.9959292143521046 4.879036790187179 14.08456602100328
72 3 0.9959292143521046 7.318555185280768 18.30993582730426
73 3 0.9959292143521046 9.758073580374358 30.9860452462072
74 3 0.9959292143521047 2.439518395093589 1.408456602100327
75 4 0.9959292143521048 4.879036790187178 5.633826408401309
76 3 0.995929214352105 7.318555185280768 1.408456602100327
77 4 0.995929214352105 7.318555185280768 9.859196214702292
78 4 0.995929214352105 9.758073580374356 14.08456602100328
79 5 0.9959292143521052 9.758073580374356 5.633826408401311
80 5 0.9959292143521055 0 39.43678485880917
81 1 0.9959292143521055 4.879036790187179 39.43678485880917
82 4 0.9959292143521055 7.318555185280767 26.76067543990622
83 3 0.9959292143521055 9.758073580374354 39.43678485880917
84 5 0.9959292143521055 9.758073580374356 22.53530563360524
85 4 0.9959292143521055 12.19759197546795 1.408456602100328
86 1 0.9959292143521055 12.19759197546795 9.859196214702292
87 2 0.9959292143521055 12.19759197546795 18.30993582730426
88 3 0.9959292143521055 12.19759197546795 35.21141505250818
89 5 0.9959292143521055 12.19759197546795 26.76067543990622
90 3 0.9959292143521055 14.63711037056153 14.08456602100328
91 5 0.9959292143521055 14.63711037056153 30.9860452462072
92 1 0.9959292143521055 14.63711037056154 5.633826408401309
93 4 0.9959292143521055 14.63711037056154 22.53530563360524
94 2 0.9959292143521055 14.63711037056154 39.43678485880917
95 2 0.9959292143521055 17.07662876565512 26.76067543990622
96 4 0.9959292143521055 17.07662876565512 35.21141505250818
97 2 0.9959292143521055 17.07662876565513 18.30993582730426
98 2 0.9959292143521055 19.51614716074871 22.53530563360524
99 1 0.9959292143521055 19.51614716074871 30.9860452462072
100 1 0.9959292143521055 19.51614716074871 39.43678485880917
101 4 0.9959292143521055 21.9556655558423 18.30993582730426
102 2 0.9959292143521055 21.9556655558423 26.76067543990622
103 4 0.9959292143521055 21.9556655558423 35.21141505250818
104 4 0.9959292143521055 24.39518395093589 30.9860452462072
105 2 0.9959292143521055 26.83470234602948 26.76067543990622
106 1 0.9959292143521059 17.07662876565512 1.408456602100327
107 2 0.9959292143521059 17.07662876565512 9.859196214702292
108 1 0.9959292143521059 19.51614716074871 14.08456602100328
109 3 0.9959292143521064 19.51614716074871 5.633826408401308
110 3 0.9959292143521064 21.9556655558423 1.408456602100327
111 3 0.9959292143521064 21.9556655558423 9.859196214702292
112 5 0.9959292143521064 24.39518395093589 5.633826408401311
113 5 0.9959292143521064 24.39518395093589 14.08456602100328
114 3 0.9959292143521064 24.39518395093589 22.53530563360524
115 5 0.9959292143521064 26.83470234602948 9.859196214702292
116 4 0.9959292143521064 26.83470234602948 1.408456602100328
117 1 0.9959292143521064 26.83470234602948 18.30993582730426
118 3 0.9959292143521072 24.39518395093589 39.43678485880917
119 5 0.9959292143521072 26.83470234602948 35.21141505250818
120 4 1.991858428704208 2.439518395093589 23.94376223570556
121 1 1.991858428704208 2.439518395093589 32.39450184830753
122 5 1.991858428704208 7.318555185280768 32.39450184830753
123 5 1.991858428704209 0 2.816913204200655
124 2 1.991858428704209 0 11.26765281680262
125 2 1.991858428704209 0 19.71839242940458
126 5 1.991858428704209 0 28.16913204200655
127 4 1.991858428704209 0 36.61987165460852
128 4 1.991858428704209 2.439518395093589 7.042283010501638
129 5 1.991858428704209 2.439518395093589 15.4930226231036
130 1 1.991858428704209 4.879036790187177 28.16913204200655
131 1 1.991858428704209 4.879036790187178 19.71839242940458
132 1 1.991858428704209 4.879036790187179 11.26765281680262
133 1 1.991858428704209 4.879036790187179 36.61987165460852
134 4 1.991858428704209 7.318555185280768 15.4930226231036
135 5 1.991858428704209 9.758073580374354 36.61987165460852
136 3 1.991858428704209 9.758073580374358 28.16913204200655
137 4 1.991858428704209 14.63711037056154 36.61987165460852
138 4 1.991858428704209 19.51614716074871 36.61987165460852
139 3 1.991858428704209 4.879036790187178 2.816913204200655
140 2 1.99185842870421 7.318555185280768 7.042283010501638
141 4 1.99185842870421 9.758073580374356 11.26765281680262
142 4 1.99185842870421 9.758073580374356 2.816913204200655
143 1 1.99185842870421 7.318555185280767 23.94376223570556
144 5 1.99185842870421 9.758073580374356 19.71839242940458
145 1 1.99185842870421 12.19759197546795 7.042283010501638
146 3 1.99185842870421 12.19759197546795 15.4930226231036
147 1 1.99185842870421 12.19759197546795 32.39450184830753
148 1 1.99185842870421 12.19759197546795 23.94376223570556
149 5 1.99185842870421 14.63711037056153 11.26765281680262
150 2 1.99185842870421 14.63711037056153 28.16913204200655
151 3 1.99185842870421 14.63711037056154 2.816913204200655
152 3 1.99185842870421 14.63711037056154 19.71839242940458
153 2 1.99185842870421 17.07662876565512 23.94376223570556
154 1 1.99185842870421 17.07662876565512 32.39450184830753
155 3 1.99185842870421 17.07662876565513 15.4930226231036
156 4 1.99185842870421 19.51614716074871 19.71839242940458
157 4 1.99185842870421 19.51614716074871 28.16913204200655
158 1 1.99185842870421 21.9556655558423 15.4930226231036
159 1 1.99185842870421 21.9556655558423 23.94376223570556
160 5 1.99185842870421 21.9556655558423 32.39450184830753
161 2 1.99185842870421 24.39518395093589 28.16913204200655
162 2 1.99185842870421 26.83470234602948 23.94376223570556
163 5 1.99185842870421 17.07662876565512 7.042283010501636
164 1 1.99185842870421 19.51614716074871 11.26765281680262
165 2 1.991858428704211 2.43951839509359 40.84524146090949
166 2 1.991858428704211 7.318555185280766 40.84524146090949
167 2 1.991858428704211 12.19759197546795 40.84524146090949
168 3 1.991858428704211 17.07662876565513 40.84524146090949
169 1 1.991858428704211 19.51614716074871 2.816913204200654
170 3 1.991858428704211 21.9556655558423 40.84524146090949
171 4 1.991858428704211 21.9556655558423 7.042283010501638
172 5 1.991858428704211 24.39518395093589 2.816913204200655
173 2 1.991858428704211 24.39518395093589 11.26765281680262
174 4 1.991858428704211 24.39518395093589 19.71839242940458
175 2 1.991858428704211 24.39518395093589 36.61987165460852
176 3 1.991858428704211 26.83470234602948 7.042283010501638
177 5 1.991858428704211 26.83470234602948 15.4930226231036
178 5 1.991858428704211 26.83470234602948 40.84524146090949
179 2 1.991858428704212 26.83470234602948 32.39450184830753
180 3 2.987787643056313 2.439518395093589 21.12684903150491
181 3 2.987787643056313 2.439518395093589 29.57758864410687
182 4 2.987787643056313 7.318555185280768 29.57758864410688
183 2 2.987787643056314 0 0
184 4 2.987787643056314 0 8.450739612601964
185 2 2.987787643056314 0 16.90147922520393
186 1 2.987787643056314 0 25.35221883780589
187 4 2.987787643056314 0 33.80295845040786
188 1 2.987787643056314 2.439518395093589 4.225369806300982
189 4 2.987787643056314 2.439518395093589 12.67610941890295
190 2 2.987787643056314 4.879036790187177 25.35221883780589
191 3 2.987787643056314 4.879036790187178 0
192 2 2.987787643056314 4.879036790187178 16.90147922520393
193 4 2.987787643056314 4.879036790187179 8.450739612601964
194 4 2.987787643056314 4.879036790187179 33.80295845040786
195 1 2.987787643056314 7.318555185280768 12.67610941890295
196 1 2.987787643056314 9.758073580374354 33.80295845040786
197 1 2.987787643056314 9.758073580374358 25.35221883780589
198 2 2.987787643056314 14.63711037056154 33.80295845040786
199 4 2.987787643056314 19.51614716074871 33.80295845040786
200 4 2.987787643056314 7.318555185280768 4.225369806300982
201 3 2.987787643056314 9.758073580374356 8.450739612601964
202 4 2.987787643056314 2.43951839509359 38.02832825670884
203 2 2.987787643056314 7.318555185280766 38.02832825670884
204 5 2.987787643056314 7.318555185280767 21.12684903150491
205 2 2.987787643056314 9.758073580374356 5.86387855813911e-16
206 4 2.987787643056314 9.758073580374356 16.90147922520393
207 2 2.987787643056314 12.19759197546795 4.225369806300982
208 1 2.987787643056314 12.19759197546795 12.67610941890295
209 2 2.987787643056314 12.19759197546795 29.57758864410687
210 5 2.987787643056314 12.19759197546795 38.02832825670884
211 3 2.987787643056314 12.19759197546795 21.12684903150491
212 3 2.987787643056314 14.63711037056153 8.450739612601964
213 3 2.987787643056314 14.63711037056153 25.35221883780589
214 3 2.987787643056314 14.63711037056154 0
215 1 2.987787643056314 14.63711037056154 16.90147922520393
216 3 2.987787643056314 17.07662876565512 21.12684903150491
217 2 2.987787643056314 17.07662876565512 29.57758864410687
218 4 2.987787643056314 17.07662876565513 12.67610941890295
219 2 2.987787643056314 17.07662876565513 38.02832825670883
220 1 2.987787643056314 19.51614716074871 16.90147922520393
221 3 2.987787643056314 19.51614716074871 25.35221883780589
222 5 2.987787643056314 21.9556655558423 12.67610941890295
223 1 2.987787643056314 21.9556655558423 38.02832825670883
224 4 2.987787643056314 21.9556655558423 21.12684903150491
225 3 2.987787643056314 21.9556655558423 29.57758864410687
226 2 2.987787643056314 24.39518395093589 25.35221883780589
227 3 2.987787643056314 26.83470234602948 21.12684903150491
228 5 2.987787643056314 26.83470234602948 38.02832825670883
229 4 2.987787643056315 17.07662876565512 4.225369806300982
230 5 2.987787643056315 19.51614716074871 8.450739612601964
231 2 2.987787643056315 19.51614716074871 42.25369806300982
232 4 2.987787643056315 21.9556655558423 4.225369806300982
233 5 2.987787643056315 24.39518395093589 5.86387855813911e-16
234 1 2.987787643056315 24.39518395093589 8.450739612601964
235 4 2.987787643056315 24.39518395093589 16.90147922520393
236 5 2.987787643056315 24.39518395093589 33.80295845040786
237 2 2.987787643056315 26.83470234602948 4.225369806300982
238 2 2.987787643056315 26.83470234602948 12.67610941890295
239 2 2.987787643056316 26.83470234602948 29.57758864410687
240 2 3.983716857408417 2.439518395093589 18.30993582730426
241 1 3.983716857408417 2.439518395093589 26.76067543990622
242 5 3.983716857408417 7.318555185280768 26.76067543990622
243 3 3.983716857408418 0 5.633826408401309
244 4 3.983716857408418 0 14.08456602100328
245 1 3.983716857408418 0 22.53530563360524
246 5 3.983716857408418 0 30.9860452462072
247 1 3.983716857408418 0 39.43678485880917
248 1 3.983716857408418 2.439518395093589 1.408456602100328
249 1 3.983716857408418 2.439518395093589 9.859196214702292
250 5 3.983716857408418 4.879036790187177 22.53530563360524
251 4 3.983716857408418 4.879036790187177 39.43678485880917
252 4 3.983716857408418 4.879036790187178 14.08456602100328
253 5 3.983716857408418 4.879036790187179 5.633826408401309
254 4 3.983716857408418 4.879036790187179 30.9860452462072
255 1 3.983716857408418 7.318555185280768 9.859196214702292
256 3 3.983716857408418 9.758073580374354 30.9860452462072
257 1 3.983716857408418 9.758073580374356 39.43678485880917
258 4 3.983716857408418 9.758073580374358 22.53530563360524
259 3 3.983716857408418 14.63711037056154 30.9860452462072
260 3 3.983716857408418 14.63711037056154 39.43678485880917
261 5 3.983716857408418 19.51614716074871 30.9860452462072
262 4 3.983716857408418 24.39518395093589 39.43678485880917
263 1 3.983716857408419 7.318555185280768 1.408456602100328
264 2 3.983716857408419 9.758073580374356 5.633826408401309
265 2 3.983716857408419 2.43951839509359 35.21141505250819
266 1 3.983716857408419 7.318555185280766 35.21141505250819
267 3 3.983716857408419 7.318555185280767 18.30993582730426
268 2 3.983716857408419 9.758073580374356 14.08456602100327
269 5 3.983716857408419 12.19759197546795 1.408456602100328
270 1 3.983716857408419 12.19759197546795 9.859196214702292
271 3 3.983716857408419 12.19759197546795 26.76067543990622
272 2 3.983716857408419 12.19759197546795 35.21141505250819
273 5 3.983716857408419 12.19759197546795 18.30993582730426
274 5 3.983716857408419 14.63711037056153 5.633826408401309
275 5 3.983716857408419 14.63711037056153 22.53530563360524
276 4 3.983716857408419 14.63711037056154 14.08456602100328
277 2 3.983716857408419 17.07662876565512 18.30993582730426
278 4 3.983716857408419 17.07662876565512 26.76067543990622
279 3 3.983716857408419 17.07662876565513 9.859196214702292
280 4 3.983716857408419 17.07662876565513 35.21141505250818
281 1 3.983716857408419 19.51614716074871 14.08456602100328
282 3 3.983716857408419 19.51614716074871 22.53530563360524
283 4 3.983716857408419 21.9556655558423 9.859196214702292
284 5 3.983716857408419 21.9556655558423 35.21141505250818
285 1 3.983716857408419 21.9556655558423 18.30993582730426
286 5 3.983716857408419 21.9556655558423 26.76067543990622
287 3 3.983716857408419 24.39518395093589 22.53530563360524
288 3 3.983716857408419 26.83470234602948 18.30993582730426
289 1 3.983716857408419 26.83470234602948 35.21141505250818
290 1 3.98371685740842 17.07662876565512 1.408456602100327
291 1 3.98371685740842 19.51614716074871 5.633826408401311
292 3 3.98371685740842 19.51614716074871 39.43678485880917
293 4 3.98371685740842 21.9556655558423 1.408456602100328
294 1 3.98371685740842 24.39518395093589 5.633826408401309
295 3 3.98371685740842 24.39518395093589 14.08456602100328
296 3 3.98371685740842 24.39518395093589 30.9860452462072
297 4 3.98371685740842 26.83470234602948 1.408456602100328
298 1 3.98371685740842 26.83470234602948 9.859196214702292
299 3 3.983716857408421 26.83470234602948 26.76067543990622
300 3 4.979646071760522 2.439518395093587 40.84524146090949
301 4 4.979646071760522 2.439518395093589 15.4930226231036
302 3 4.979646071760522 2.439518395093589 23.94376223570556
303 1 4.979646071760522 7.318555185280768 23.94376223570556
304 1 4.979646071760522 7.318555185280768 40.84524146090949
305 1 4.979646071760522 12.19759197546795 40.84524146090949
306 2 4.979646071760523 0 2.816913204200655
307 1 4.979646071760523 0 11.26765281680262
308 1 4.979646071760523 0 19.71839242940458
309 3 4.979646071760523 0 28.16913204200655
310 2 4.979646071760523 0 36.61987165460852
311 4 4.979646071760523 2.439518395093589 7.042283010501638
312 1 4.979646071760523 4.879036790187177 19.71839242940458
313 1 4.979646071760523 4.879036790187177 36.61987165460852
314 5 4.979646071760523 4.879036790187178 11.26765281680262
315 4 4.979646071760523 4.879036790187179 2.816913204200655
316 2 4.979646071760523 4.879036790187179 28.16913204200655
317 2 4.979646071760523 7.318555185280768 7.042283010501636
318 4 4.979646071760523 9.758073580374354 28.16913204200655
319 1 4.979646071760523 9.758073580374356 36.61987165460852
320 3 4.979646071760523 9.758073580374358 19.71839242940458
321 5 4.979646071760523 14.63711037056154 28.16913204200655
322 2 4.979646071760523 14.63711037056154 36.61987165460852
323 1 4.979646071760523 19.51614716074871 28.16913204200655
324 4 4.979646071760523 24.39518395093589 36.61987165460852
325 5 4.979646071760524 2.43951839509359 32.39450184830753
326 4 4.979646071760524 7.318555185280766 32.39450184830753
327 5 4.979646071760524 7.318555185280767 15.4930226231036
328 4 4.979646071760524 9.758073580374356 2.816913204200655
329 1 4.979646071760524 9.758073580374356 11.26765281680262
330 4 4.979646071760524 12.19759197546795 7.042283010501636
331 4 4.979646071760524 12.19759197546795 23.94376223570556
332 3 4.979646071760524 12.19759197546795 32.39450184830753
333 1 4.979646071760524 12.19759197546795 15.4930226231036
334 5 4.979646071760524 14.63711037056153 2.816913204200655
335 1 4.979646071760524 14.63711037056153 19.71839242940458
336 5 4.979646071760524 14.63711037056154 11.26765281680262
337 5 4.979646071760524 17.07662876565512 15.4930226231036
338 5 4.979646071760524 17.07662876565512 23.94376223570556
339 1 4.979646071760524 17.07662876565512 40.84524146090949
340 4 4.979646071760524 17.07662876565513 7.042283010501638
341 4 4.979646071760524 17.07662876565513 32.39450184830753
342 5 4.979646071760524 19.51614716074871 2.816913204200656
343 4 4.979646071760524 19.51614716074871 11.26765281680262
344 2 4.979646071760524 19.51614716074871 19.71839242940458
345 5 4.979646071760524 21.9556655558423 7.042283010501638
346 2 4.979646071760524 21.9556655558423 32.39450184830753
347 3 4.979646071760524 21.9556655558423 15.4930226231036
348 4 4.979646071760524 21.9556655558423 23.94376223570556
349 2 4.979646071760524 21.9556655558423 40.84524146090949
350 2 4.979646071760524 24.39518395093589 19.71839242940458
351 2 4.979646071760524 26.83470234602948 15.4930226231036
352 2 4.979646071760524 26.83470234602948 32.39450184830753
353 2 4.979646071760524 26.83470234602948 40.84524146090949
354 5 4.979646071760524 19.51614716074871 36.61987165460852
355 2 4.979646071760524 24.39518395093589 2.816913204200655
356 1 4.979646071760524 24.39518395093589 11.26765281680262
357 4 4.979646071760524 24.39518395093589 28.16913204200655
358 5 4.979646071760524 26.83470234602948 7.042283010501636
359 3 4.979646071760525 26.83470234602948 23.94376223570556
360 3 5.975575286112626 2.439518395093587 38.02832825670884
361 4 5.975575286112626 2.439518395093589 12.67610941890295
362 2 5.975575286112626 2.439518395093589 21.12684903150491
363 3 5.975575286112626 7.318555185280768 21.12684903150491
364 3 5.975575286112626 7.318555185280768 38.02832825670884
365 1 5.975575286112626 12.19759197546795 38.02832825670884
366 4 5.975575286112627 0 0
367 1 5.975575286112627 0 8.450739612601964
368 5 5.975575286112627 0 16.90147922520393
369 3 5.975575286112627 0 25.35221883780589
370 4 5.975575286112627 0 33.80295845040786
371 4 5.975575286112627 2.439518395093589 4.225369806300983
372 4 5.975575286112627 4.879036790187177 16.90147922520393
373 3 5.975575286112627 4.879036790187177 33.80295845040786
374 3 5.975575286112627 4.879036790187178 8.450739612601964
375 2 5.975575286112627 4.879036790187179 0
376 5 5.975575286112627 4.879036790187179 25.3522188378059
377 2 5.975575286112627 7.318555185280768 4.225369806300982
378 3 5.975575286112627 9.758073580374354 25.3522188378059
379 5 5.975575286112627 9.758073580374356 0
380 2 5.975575286112627 9.758073580374356 33.80295845040786
381 1 5.975575286112627 9.758073580374358 16.90147922520393
382 1 5.975575286112627 14.63711037056154 25.35221883780589
383 5 5.975575286112627 14.63711037056154 33.80295845040786
384 5 5.975575286112627 19.51614716074871 25.35221883780589
385 2 5.975575286112627 24.39518395093589 33.80295845040786
386 1 5.975575286112628 2.43951839509359 29.57758864410687
387 1 5.975575286112628 7.318555185280766 29.57758864410687
388 1 5.975575286112628 7.318555185280767 12.67610941890295
389 5 5.975575286112628 9.758073580374356 8.450739612601964
390 2 5.975575286112628 12.19759197546795 4.225369806300982
391 1 5.975575286112628 12.19759197546795 21.12684903150491
392 4 5.975575286112628 12.19759197546795 29.57758864410687
393 1 5.975575286112628 12.19759197546795 12.67610941890295
394 3 5.975575286112628 14.63711037056153 0
395 1 5.975575286112628 14.63711037056153 16.90147922520393
396 3 5.975575286112628 14.63711037056154 8.450739612601964
397 3 5.975575286112628 17.07662876565512 12.67610941890295
398 5 5.975575286112628 17.07662876565512 21.12684903150491
399 2 5.975575286112628 17.07662876565512 38.02832825670884
400 1 5.975575286112628 17.07662876565513 4.225369806300983
401 4 5.975575286112628 17.07662876565513 29.57758864410687
402 3 5.975575286112628 19.51614716074871 8.450739612601964
403 1 5.975575286112628 19.51614716074871 16.90147922520393
404 2 5.975575286112628 21.9556655558423 4.225369806300983
405 2 5.975575286112628 21.9556655558423 29.57758864410687
406 3 5.975575286112628 21.9556655558423 12.67610941890295
407 1 5.975575286112628 21.9556655558423 21.12684903150491
408 4 5.975575286112628 21.9556655558423 38.02832825670883
409 3 5.975575286112628 24.39518395093589 16.90147922520393
410 3 5.975575286112628 26.83470234602948 12.67610941890295
411 2 5.975575286112628 26.83470234602948 29.57758864410687
412 2 5.975575286112628 26.83470234602948 38.02832825670884
413 1 5.975575286112629 19.51614716074871 1.172775711627822e-15
414 1 5.975575286112629 19.51614716074871 33.80295845040786
415 1 5.975575286112629 24.39518395093589 0
416 5 5.975575286112629 24.39518395093589 8.450739612601964
417 3 5.975575286112629 24.39518395093589 25.35221883780589
418 2 5.975575286112629 26.83470234602948 4.225369806300982
419 3 5.97557528611263 26.83470234602948 21.12684903150491
420 3 6.97150450046473 0 39.43678485880917
421 5 6.97150450046473 4.879036790187177 39.43678485880917
422 2 6.97150450046473 2.439518395093587 35.21141505250819
423 3 6.97150450046473 2.439518395093589 9.859196214702292
424 5 6.97150450046473 2.439518395093589 18.30993582730426
425 5 6.97150450046473 7.318555185280768 18.30993582730426
426 1 6.97150450046473 7.318555185280768 35.21141505250819
427 4 6.97150450046473 12.19759197546795 35.21141505250819
428 1 6.971504500464731 0 5.633826408401311
429 1 6.971504500464731 0 14.08456602100327
430 2 6.971504500464731 0 22.53530563360524
431 1 6.971504500464731 0 30.9860452462072
432 4 6.971504500464731 2.439518395093589 1.408456602100328
433 4 6.971504500464731 4.879036790187177 14.08456602100327
434 4 6.971504500464731 4.879036790187177 30.9860452462072
435 1 6.971504500464731 4.879036790187178 5.633826408401311
436 1 6.971504500464731 4.879036790187179 22.53530563360524
437 2 6.971504500464731 7.318555185280768 1.408456602100327
438 5 6.971504500464731 9.758073580374354 22.53530563360524
439 1 6.971504500464731 9.758073580374356 30.9860452462072
440 1 6.971504500464731 9.758073580374358 14.08456602100327
441 5 6.971504500464731 9.758073580374358 39.43678485880917
442 3 6.971504500464731 14.63711037056154 22.53530563360524
443 2 6.971504500464731 14.63711037056154 30.9860452462072
444 4 6.971504500464731 19.51614716074871 22.53530563360524
445 5 6.971504500464731 19.51614716074871 39.43678485880917
446 2 6.971504500464731 24.39518395093589 30.9860452462072
447 5 6.971504500464733 2.43951839509359 26.76067543990622
448 3 6.971504500464733 7.318555185280766 26.76067543990622
449 2 6.971504500464733 7.318555185280767 9.859196214702292
450 1 6.971504500464733 9.758073580374356 5.633826408401308
451 5 6.971504500464733 12.19759197546795 1.408456602100327
452 5 6.971504500464733 12.19759197546795 18.30993582730426
453 5 6.971504500464733 12.19759197546795 26.76067543990622
454 2 6.971504500464733 12.19759197546795 9.859196214702292
455 3 6.971504500464733 14.63711037056153 14.08456602100327
456 4 6.971504500464733 14.63711037056154 5.633826408401311
457 5 6.971504500464733 17.07662876565512 9.859196214702292
458 5 6.971504500464733 17.07662876565512 18.30993582730426
459 1 6.971504500464733 17.07662876565512 35.21141505250819
460 2 6.971504500464733 17.07662876565513 1.408456602100328
461 3 6.971504500464733 17.07662876565513 26.76067543990622
462 5 6.971504500464733 19.51614716074871 5.633826408401311
463 3 6.971504500464733 19.51614716074871 14.08456602100327
464 1 6.971504500464733 21.9556655558423 1.408456602100328
465 4 6.971504500464733 21.9556655558423 26.76067543990622
466 2 6.971504500464733 21.9556655558423 9.859196214702292
467 5 6.971504500464733 21.9556655558423 18.30993582730426
468 1 6.971504500464733 21.9556655558423 35.21141505250818
469 4 6.971504500464733 24.39518395093589 14.08456602100327
470 3 6.971504500464733 26.83470234602948 9.859196214702292
471 4 6.971504500464733 26.83470234602948 26.76067543990622
472 2 6.971504500464733 26.83470234602948 35.21141505250819
473 1 6.971504500464734 14.63711037056153 39.43678485880917
474 4 6.971504500464734 19.51614716074871 30.9860452462072
475 3 6.971504500464734 24.39518395093589 5.633826408401311
476 1 6.971504500464734 24.39518395093589 22.53530563360524
477 5 6.971504500464734 24.39518395093589 39.43678485880917
478 4 6.971504500464734 26.83470234602948 1.408456602100327
479 5 6.971504500464735 26.83470234602948 18.30993582730426
480 1 7.967433714816835 0 36.61987165460852
481 2 7.967433714816835 4.879036790187177 36.61987165460852
482 3 7.967433714816836 2.439518395093587 32.39450184830753
483 2 7.967433714816836 2.439518395093589 7.042283010501638
484 1 7.967433714816836 2.439518395093589 15.4930226231036
485 3 7.967433714816836 2.43951839509359 40.84524146090949
486 5 7.967433714816836 7.318555185280768 15.4930226231036
487 1 7.967433714816836 7.318555185280768 32.39450184830753
488 4 7.967433714816836 7.318555185280768 40.84524146090949
489 1 7.967433714816836 12.19759197546795 32.39450184830753
490 2 7.967433714816837 0 2.816913204200655
491 1 7.967433714816837 0 11.26765281680262
492 5 7.967433714816837 0 19.71839242940458
493 5 7.967433714816837 0 28.16913204200655
494 5 7.967433714816837 4.879036790187177 11.26765281680262
495 4 7.967433714816837 4.879036790187177 28.16913204200655
496 5 7.967433714816837 4.879036790187178 2.816913204200655
497 5 7.967433714816837 4.879036790187179 19.71839242940458
498 1 7.967433714816837 9.758073580374354 19.71839242940458
499 1 7.967433714816837 9.758073580374356 28.16913204200655
500 5 7.967433714816837 9.758073580374358 11.26765281680262
501 3 7.967433714816837 9.758073580374358 36.61987165460852
502 1 7.967433714816837 14.63711037056154 19.71839242940458
503 2 7.967433714816837 14.63711037056154 28.16913204200655
504 4 7.967433714816837 19.51614716074871 19.71839242940458
505 2 7.967433714816837 19.51614716074871 36.61987165460852
506 3 7.967433714816837 24.39518395093589 28.16913204200655
507 3 7.967433714816837 2.43951839509359 23.94376223570556
508 3 7.967433714816837 7.318555185280766 23.94376223570556
509 4 7.967433714816837 7.318555185280767 7.042283010501638
510 1 7.967433714816837 9.758073580374356 2.816913204200654
511 5 7.967433714816837 12.19759197546795 15.4930226231036
512 1 7.967433714816837 12.19759197546795 23.94376223570556
513 2 7.967433714816837 12.19759197546795 40.84524146090949
514 4 7.967433714816837 12.19759197546795 7.042283010501638
515 4 7.967433714816837 14.63711037056153 11.26765281680262
516 5 7.967433714816837 14.63711037056154 2.816913204200655
517 5 7.967433714816837 17.07662876565512 7.042283010501638
518 5 7.967433714816837 17.07662876565512 15.4930226231036
519 3 7.967433714816837 17.07662876565512 32.39450184830753
520 3 7.967433714816837 17.07662876565512 40.84524146090949
521 5 7.967433714816837 17.07662876565513 23.94376223570556
522 5 7.967433714816837 19.51614716074871 2.816913204200655
523 4 7.967433714816837 19.51614716074871 11.26765281680262
524 1 7.967433714816837 21.9556655558423 23.94376223570556
525 4 7.967433714816837 21.9556655558423 7.042283010501638
526 1 7.967433714816837 21.9556655558423 15.4930226231036
527 2 7.967433714816837 21.9556655558423 32.39450184830753
528 1 7.967433714816837 21.9556655558423 40.84524146090949
529 5 7.967433714816837 24.39518395093589 11.26765281680262
530 4 7.967433714816837 26.83470234602948 7.042283010501638
531 5 7.967433714816837 26.83470234602948 23.94376223570556
532 3 7.967433714816837 26.83470234602948 32.39450184830753
533 5 7.967433714816837 26.83470234602948 40.84524146090949
534 3 7.967433714816838 14.63711037056153 36.61987165460852
535 1 7.967433714816838 19.51614716074871 28.16913204200655
536 2 7.967433714816838 24.39518395093589 2.816913204200655
537 5 7.967433714816838 24.39518395093589 19.71839242940458
538 2 7.967433714816838 24.39518395093589 36.61987165460852
539 5 7.967433714816839 26.83470234602948 15.4930226231036
540 1 8.963362929168939 0 0
541 5 8.963362929168939 0 8.450739612601964
542 5 8.963362929168939 0 16.90147922520393
543 1 8.963362929168939 0 25.3522188378059
544 3 8.963362929168939 0 33.80295845040786
545 1 8.963362929168939 2.439518395093587 29.57758864410687
546 5 8.963362929168939 2.439518395093589 4.225369806300982
547 2 8.963362929168939 2.439518395093589 12.67610941890295
548 2 8.963362929168939 2.43951839509359 38.02832825670884
549 3 8.963362929168939 4.879036790187177 8.450739612601964
550 4 8.963362929168939 4.879036790187177 25.3522188378059
551 2 8.963362929168939 4.879036790187177 33.80295845040786
552 3 8.963362929168939 4.879036790187178 0
553 5 8.963362929168939 4.879036790187179 16.90147922520393
554 5 8.963362929168939 7.318555185280768 12.67610941890295
555 2 8.963362929168939 7.318555185280768 29.57758864410687
556 2 8.963362929168939 7.318555185280768 38.02832825670884
557 2 8.963362929168939 9.758073580374354 16.90147922520393
558 4 8.963362929168939 9.758073580374356 25.3522188378059
559 2 8.963362929168939 9.758073580374358 8.450739612601964
560 1 8.963362929168939 9.758073580374358 33.80295845040786
561 3 8.963362929168939 12.19759197546795 29.57758864410687
562 1 8.963362929168939 14.63711037056154 16.90147922520393
563 4 8.963362929168939 14.63711037056154 25.3522188378059
564 2 8.963362929168939 19.51614716074871 16.90147922520393
565 2 8.963362929168939 19.51614716074871 33.80295845040786
566 4 8.963362929168939 24.39518395093589 25.35221883780589
567 5 8.963362929168941 2.43951839509359 21.12684903150491
568 2 8.963362929168941 7.318555185280766 21.12684903150491
569 5 8.963362929168941 7.318555185280767 4.225369806300982
570 4 8.963362929168941 9.758073580374356 42.25369806300982
571 3 8.963362929168941 12.19759197546795 12.67610941890295
572 3 8.963362929168941 12.19759197546795 21.12684903150491
573 1 8.963362929168941 12.19759197546795 38.02832825670884
574 1 8.963362929168941 12.19759197546795 4.225369806300982
575 5 8.963362929168941 14.63711037056153 8.450739612601964
576 2 8.963362929168941 14.63711037056154 0
577 4 8.963362929168941 17.07662876565512 4.225369806300982
578 5 8.963362929168941 17.07662876565512 12.67610941890295
579 4 8.963362929168941 17.07662876565512 29.57758864410687
580 5 8.963362929168941 17.07662876565512 38.02832825670884
581 3 8.963362929168941 17.07662876565513 21.12684903150491
582 5 8.963362929168941 19.51614716074871 0
583 2 8.963362929168941 19.51614716074871 8.450739612601964
584 4 8.963362929168941 21.9556655558423 21.12684903150491
585 4 8.963362929168941 21.9556655558423 4.225369806300982
586 4 8.963362929168941 21.9556655558423 12.67610941890295
587 2 8.963362929168941 21.9556655558423 29.57758864410687
588 5 8.963362929168941 21.9556655558423 38.02832825670884
589 5 8.963362929168941 24.39518395093589 8.450739612601964
590 2 8.963362929168941 26.83470234602948 4.225369806300982
591 3 8.963362929168941 26.83470234602948 21.12684903150491
592 3 8.963362929168941 26.83470234602948 29.57758864410687
593 4 8.963362929168941 26.83470234602948 38.02832825670884
594 5 8.963362929168943 14.63711037056153 33.80295845040786
595 3 8.963362929168943 19.51614716074871 25.35221883780589
596 2 8.963362929168943 24.39518395093589 0
597 4 8.963362929168943 24.39518395093589 16.90147922520393
598 4 8.963362929168943 24.39518395093589 33.80295845040786
599 1 8.963362929168943 26.83470234602948 12.67610941890295
600 3 9.959292143521044 0 30.9860452462072
601 4 9.959292143521044 2.439518395093587 26.76067543990622
602 4 9.959292143521044 2.439518395093589 1.408456602100327
603 4 9.959292143521044 2.439518395093589 9.859196214702292
604 3 9.959292143521044 2.43951839509359 35.21141505250818
605 2 9.959292143521044 4.879036790187177 30.9860452462072
606 5 9.959292143521044 7.318555185280768 9.859196214702294
607 4 9.959292143521044 7.318555185280768 26.76067543990622
608 3 9.959292143521044 7.318555185280768 35.21141505250818
609 1 9.959292143521044 12.19759197546795 26.76067543990622
610 4 9.959292143521045 0 5.633826408401309
611 3 9.959292143521045 0 14.08456602100327
612 4 9.959292143521045 0 22.53530563360524
613 5 9.959292143521045 0 39.43678485880917
614 2 9.959292143521045 4.879036790187177 5.633826408401309
615 5 9.959292143521045 4.879036790187177 22.53530563360524
616 3 9.959292143521045 4.879036790187179 14.08456602100328
617 3 9.959292143521045 4.879036790187181 39.43678485880917
618 4 9.959292143521045 9.758073580374354 14.08456602100328
619 3 9.959292143521045 9.758073580374354 39.43678485880917
620 2 9.959292143521045 9.758073580374356 22.53530563360524
621 3 9.959292143521045 9.758073580374358 5.633826408401309
622 4 9.959292143521045 9.758073580374358 30.9860452462072
623 2 9.959292143521045 14.63711037056154 14.08456602100327
624 1 9.959292143521045 14.63711037056154 22.53530563360524
625 2 9.959292143521045 14.63711037056154 39.43678485880917
626 3 9.959292143521045 19.51614716074871 14.08456602100327
627 1 9.959292143521045 19.51614716074871 30.9860452462072
628 4 9.959292143521045 19.51614716074872 39.43678485880917
629 5 9.959292143521045 24.39518395093589 22.53530563360524
630 2 9.959292143521045 24.39518395093589 39.43678485880917
631 4 9.959292143521047 2.43951839509359 18.30993582730426
632 3 9.959292143521047 7.318555185280766 18.30993582730426
633 5 9.959292143521047 7.318555185280767 1.408456602100327
634 3 9.959292143521047 12.19759197546795 9.859196214702292
635 3 9.959292143521047 12.19759197546795 18.30993582730426
636 4 9.959292143521047 12.19759197546795 35.21141505250818
637 1 9.959292143521047 12.19759197546795 1.408456602100327
638 1 9.959292143521047 14.63711037056153 5.633826408401309
639 5 9.959292143521047 14.63711037056153 30.9860452462072
640 5 9.959292143521047 17.07662876565512 1.408456602100327
641 4 9.959292143521047 17.07662876565512 9.859196214702292
642 3 9.959292143521047 17.07662876565512 26.76067543990622
643 3 9.959292143521047 17.07662876565512 35.21141505250818
644 5 9.959292143521047 17.07662876565513 18.30993582730425
645 5 9.959292143521047 19.51614716074871 5.633826408401309
646 3 9.959292143521047 19.51614716074871 22.53530563360524
647 3 9.959292143521047 21.9556655558423 18.30993582730425
648 1 9.959292143521047 21.9556655558423 1.408456602100327
649 4 9.959292143521047 21.9556655558423 9.859196214702292
650 3 9.959292143521047 21.9556655558423 26.76067543990622
651 1 9.959292143521047 21.9556655558423 35.21141505250818
652 4 9.959292143521047 24.39518395093589 14.08456602100327
653 5 9.959292143521047 24.39518395093589 5.633826408401309
654 5 9.959292143521047 24.39518395093589 30.9860452462072
655 5 9.959292143521047 26.83470234602948 1.408456602100327
656 2 9.959292143521047 26.83470234602948 9.859196214702292
657 1 9.959292143521047 26.83470234602948 18.30993582730425
658 3 9.959292143521047 26.83470234602948 26.76067543990622
659 4 9.959292143521047 26.83470234602948 35.21141505250818
660 3 10.95522135787315 0 28.16913204200655
661 1 10.95522135787315 4.879036790187177 28.16913204200655
662 5 10.95522135787315 2.439518395093587 23.94376223570556
663 3 10.95522135787315 2.439518395093589 7.042283010501636
664 5 10.95522135787315 2.43951839509359 32.39450184830753
665 4 10.95522135787315 2.43951839509359 40.84524146090949
666 5 10.95522135787315 7.318555185280768 7.042283010501639
667 4 10.95522135787315 7.318555185280768 23.94376223570556
668 4 10.95522135787315 7.318555185280768 32.39450184830753
669 3 10.95522135787315 7.318555185280768 40.84524146090949
670 1 10.95522135787315 12.19759197546795 40.84524146090949
671 5 10.95522135787315 12.19759197546795 23.94376223570556
672 4 10.95522135787315 17.07662876565513 40.84524146090949
673 1 10.95522135787315 21.9556655558423 40.84524146090949
674 4 10.95522135787315 26.83470234602948 40.84524146090949
675 1 10.95522135787315 0 2.816913204200654
676 1 10.95522135787315 0 11.26765281680262
677 2 10.95522135787315 0 19.71839242940458
678 2 10.95522135787315 0 36.61987165460852
679 4 10.95522135787315 2.43951839509359 15.4930226231036
680 5 10.95522135787315 4.879036790187177 2.816913204200654
681 4 10.95522135787315 4.879036790187177 19.71839242940458
682 2 10.95522135787315 4.879036790187179 11.26765281680262
683 5 10.95522135787315 4.879036790187181 36.61987165460852
684 4 10.95522135787315 7.318555185280766 15.4930226231036
685 2 10.95522135787315 9.758073580374354 11.26765281680262
686 3 10.95522135787315 9.758073580374354 36.61987165460852
687 5 10.95522135787315 9.758073580374356 19.71839242940458
688 5 10.95522135787315 9.758073580374358 2.816913204200654
689 3 10.95522135787315 9.758073580374358 28.16913204200655
690 3 10.95522135787315 12.19759197546795 7.042283010501636
691 1 10.95522135787315 12.19759197546795 15.4930226231036
692 1 10.95522135787315 12.19759197546795 32.39450184830753
693 1 10.95522135787315 14.63711037056153 2.816913204200654
694 2 10.95522135787315 14.63711037056153 28.16913204200655
695 2 10.95522135787315 14.63711037056154 11.26765281680262
696 1 10.95522135787315 14.63711037056154 19.71839242940458
697 5 10.95522135787315 14.63711037056154 36.61987165460852
698 1 10.95522135787315 17.07662876565512 7.042283010501636
699 4 10.95522135787315 17.07662876565512 23.94376223570556
700 3 10.95522135787315 17.07662876565512 32.39450184830753
701 1 10.95522135787315 17.07662876565513 15.4930226231036
702 1 10.95522135787315 19.51614716074871 2.816913204200654
703 4 10.95522135787315 19.51614716074871 11.26765281680262
704 3 10.95522135787315 19.51614716074871 19.71839242940458
705 5 10.95522135787315 19.51614716074871 28.16913204200655
706 1 10.95522135787315 19.51614716074872 36.61987165460852
707 5 10.95522135787315 21.9556655558423 15.4930226231036
708 2 10.95522135787315 21.9556655558423 7.042283010501636
709 1 10.95522135787315 21.9556655558423 23.94376223570556
710 4 10.95522135787315 21.9556655558423 32.39450184830753
711 1 10.95522135787315 24.39518395093589 11.26765281680262
712 5 10.95522135787315 24.39518395093589 19.71839242940458
713 3 10.95522135787315 24.39518395093589 36.61987165460852
714 1 10.95522135787315 24.39518395093589 2.816913204200654
715 4 10.95522135787315 24.39518395093589 28.16913204200655
716 2 10.95522135787315 26.83470234602948 15.4930226231036
717 4 10.95522135787315 26.83470234602948 23.94376223570556
718 1 10.95522135787315 26.83470234602948 32.39450184830753
719 1 10.95522135787315 26.83470234602948 7.042283010501636
720 5 11.95115057222525 0 25.35221883780589
721 5 11.95115057222525 4.879036790187177 25.35221883780589
722 5 11.95115057222525 0 0
723 5 11.95115057222525 0 8.450739612601964
724 2 11.95115057222525 0 16.90147922520393
725 5 11.95115057222525 0 33.80295845040786
726 4 11.95115057222525 2.439518395093587 21.12684903150491
727 3 11.95115057222525 2.439518395093589 4.225369806300981
728 1 11.95115057222525 2.43951839509359 12.67610941890295
729 2 11.95115057222525 2.43951839509359 29.57758864410687
730 3 11.95115057222525 2.43951839509359 38.02832825670883
731 3 11.95115057222525 4.879036790187177 0
732 2 11.95115057222525 4.879036790187177 16.90147922520393
733 3 11.95115057222525 4.879036790187179 8.450739612601966
734 1 11.95115057222525 4.879036790187181 33.80295845040786
735 3 11.95115057222525 7.318555185280766 12.67610941890295
736 2 11.95115057222525 7.318555185280768 4.225369806300984
737 1 11.95115057222525 7.318555185280768 21.12684903150491
738 4 11.95115057222525 7.318555185280768 29.57758864410687
739 2 11.95115057222525 7.318555185280768 38.02832825670883
740 3 11.95115057222525 9.758073580374354 8.450739612601966
741 2 11.95115057222525 9.758073580374354 33.80295845040786
742 3 11.95115057222525 9.758073580374356 16.90147922520393
743 5 11.95115057222525 9.758073580374358 0
744 1 11.95115057222525 9.758073580374358 25.35221883780589
745 1 11.95115057222525 12.19759197546795 4.225369806300981
746 4 11.95115057222525 12.19759197546795 12.67610941890295
747 3 11.95115057222525 12.19759197546795 29.57758864410687
748 5 11.95115057222525 12.19759197546795 38.02832825670883
749 5 11.95115057222525 12.19759197546795 21.12684903150491
750 5 11.95115057222525 14.63711037056153 0
751 1 11.95115057222525 14.63711037056154 8.450739612601964
752 2 11.95115057222525 14.63711037056154 16.90147922520393
753 3 11.95115057222525 14.63711037056154 33.80295845040786
754 5 11.95115057222525 17.07662876565512 4.225369806300981
755 3 11.95115057222525 17.07662876565512 21.12684903150491
756 3 11.95115057222525 17.07662876565512 29.57758864410687
757 5 11.95115057222525 17.07662876565513 12.67610941890295
758 1 11.95115057222525 17.07662876565513 38.02832825670883
759 5 11.95115057222525 19.51614716074871 0
760 1 11.95115057222525 19.51614716074871 8.450739612601964
761 1 11.95115057222525 19.51614716074871 25.35221883780589
762 3 11.95115057222525 19.51614716074872 33.80295845040786
763 1 11.95115057222525 21.9556655558423 12.67610941890295
764 2 11.95115057222525 21.9556655558423 4.225369806300981
765 4 11.95115057222525 21.9556655558423 21.12684903150491
766 1 11.95115057222525 21.9556655558423 29.57758864410687
767 2 11.95115057222525 21.9556655558423 38.02832825670883
768 4 11.95115057222525 24.39518395093589 16.90147922520393
769 5 11.95115057222525 24.39518395093589 33.80295845040786
770 5 11.95115057222525 24.39518395093589 0
771 2 11.95115057222525 26.83470234602948 38.02832825670883
772 1 11.95115057222525 26.83470234602948 12.67610941890295
773 1 11.95115057222525 26.83470234602948 21.12684903150491
774 3 11.95115057222525 26.83470234602948 29.57758864410687
775 4 11.95115057222526 14.63711037056153 25.35221883780589
776 4 11.95115057222526 19.51614716074871 16.90147922520393
777 5 11.95115057222526 24.39518395093589 8.450739612601964
778 1 11.95115057222526 24.39518395093589 25.35221883780589
779 4 11.95115057222526 26.83470234602948 4.225369806300981
780 4 12.94707978657736 0 5.633826408401308
781 2 12.94707978657736 0 14.08456602100328
782 4 12.94707978657736 0 22.53530563360524
783 2 12.94707978657736 0 30.9860452462072
784 1 12.94707978657736 0 39.43678485880917
785 4 12.94707978657736 2.439518395093587 18.30993582730426
786 1 12.94707978657736 2.439518395093589 1.408456602100327
787 2 12.94707978657736 2.43951839509359 26.76067543990622
788 5 12.94707978657736 2.43951839509359 35.21141505250818
789 4 12.94707978657736 4.879036790187177 14.08456602100328
790 5 12.94707978657736 4.879036790187177 22.53530563360524
791 4 12.94707978657736 4.879036790187177 39.43678485880917
792 2 12.94707978657736 4.879036790187179 5.633826408401311
793 2 12.94707978657736 4.879036790187181 30.9860452462072
794 5 12.94707978657736 7.318555185280768 1.408456602100329
795 2 12.94707978657736 7.318555185280768 18.30993582730426
796 5 12.94707978657736 7.318555185280768 26.76067543990622
797 1 12.94707978657736 7.318555185280768 35.21141505250818
798 4 12.94707978657736 9.758073580374354 5.633826408401311
799 4 12.94707978657736 9.758073580374354 30.9860452462072
800 4 12.94707978657736 9.758073580374356 14.08456602100328
801 3 12.94707978657736 9.758073580374358 22.53530563360524
802 3 12.94707978657736 9.758073580374358 39.43678485880917
803 2 12.94707978657736 12.19759197546795 35.21141505250818
804 4 12.94707978657736 12.19759197546795 18.30993582730426
805 3 12.94707978657736 14.63711037056154 5.633826408401308
806 2 12.94707978657736 14.63711037056154 14.08456602100328
807 3 12.94707978657736 14.63711037056154 30.9860452462072
808 2 12.94707978657736 14.63711037056154 39.43678485880917
809 3 12.94707978657736 17.07662876565513 35.21141505250818
810 1 12.94707978657736 19.51614716074871 5.633826408401308
811 3 12.94707978657736 19.51614716074871 22.53530563360524
812 5 12.94707978657736 19.51614716074871 39.43678485880917
813 2 12.94707978657736 19.51614716074872 30.9860452462072
814 1 12.94707978657736 21.9556655558423 35.21141505250818
815 5 12.94707978657736 24.39518395093589 14.08456602100327
816 2 12.94707978657736 24.39518395093589 30.9860452462072
817 5 12.94707978657736 26.83470234602948 35.21141505250818
818 3 12.94707978657736 2.43951839509359 9.859196214702292
819 3 12.94707978657736 7.318555185280766 9.859196214702292
820 2 12.94707978657736 12.19759197546795 1.408456602100327
821 4 12.94707978657736 12.19759197546795 9.859196214702292
822 4 12.94707978657736 12.19759197546795 26.76067543990622
823 1 12.94707978657736 17.07662876565512 1.408456602100327
824 3 12.94707978657736 17.07662876565512 18.30993582730426
825 1 12.94707978657736 17.07662876565512 26.76067543990622
826 2 12.94707978657736 17.07662876565513 9.85919621470229
827 2 12.94707978657736 21.9556655558423 9.85919621470229
828 1 12.94707978657736 21.9556655558423 1.408456602100327
829 1 12.94707978657736 21.9556655558423 18.30993582730425
830 3 12.94707978657736 21.9556655558423 26.76067543990622
831 1 12.94707978657736 26.83470234602948 9.85919621470229
832 1 12.94707978657736 26.83470234602948 18.30993582730426
833 4 12.94707978657736 26.83470234602948 26.76067543990622
834 3 12.94707978657736 14.63711037056153 22.53530563360524
835 4 12.94707978657736 19.51614716074871 14.08456602100327
836 4 12.94707978657736 24.39518395093589 5.633826408401308
837 3 12.94707978657736 24.39518395093589 39.43678485880917
838 4 12.94707978657736 24.39518395093589 22.53530563360524
839 3 12.94707978657736 26.83470234602948 1.408456602100327
840 2 13.94300900092946 0 19.71839242940458
841 3 13.94300900092946 0 36.61987165460852
842 5 13.94300900092946 2.439518395093587 15.4930226231036
843 2 13.94300900092946 2.439518395093587 40.84524146090949
844 5 13.94300900092946 2.43951839509359 23.94376223570556
845 2 13.94300900092946 2.43951839509359 32.39450184830753
846 2 13.94300900092946 4.879036790187177 19.71839242940458
847 3 13.94300900092946 4.879036790187177 36.61987165460852
848 2 13.94300900092946 7.318555185280768 15.4930226231036
849 5 13.94300900092946 7.318555185280768 23.94376223570556
850 1 13.94300900092946 7.318555185280768 32.39450184830753
851 2 13.94300900092946 7.318555185280768 40.84524146090949
852 5 13.94300900092946 9.758073580374358 36.61987165460852
853 4 13.94300900092946 12.19759197546795 32.39450184830753
854 1 13.94300900092946 12.19759197546795 15.4930226231036
855 1 13.94300900092946 14.63711037056154 36.61987165460852
856 2 13.94300900092946 17.07662876565512 40.84524146090949
857 2 13.94300900092946 17.07662876565513 32.39450184830753
858 2 13.94300900092946 19.51614716074871 36.61987165460852
859 4 13.94300900092946 21.9556655558423 32.39450184830753
860 1 13.94300900092946 26.83470234602948 32.39450184830753
861 3 13.94300900092946 0 2.816913204200654
862 5 13.94300900092946 0 11.26765281680262
863 4 13.94300900092946 0 28.16913204200655
864 2 13.94300900092946 4.879036790187177 11.26765281680262
865 2 13.94300900092946 4.879036790187179 2.816913204200656
866 1 13.94300900092946 4.879036790187181 28.16913204200655
867 3 13.94300900092946 9.758073580374354 2.816913204200656
868 2 13.94300900092946 9.758073580374354 28.16913204200655
869 2 13.94300900092946 9.758073580374356 11.26765281680262
870 4 13.94300900092946 9.758073580374358 19.71839242940458
871 1 13.94300900092946 14.63711037056154 2.816913204200654
872 3 13.94300900092946 14.63711037056154 11.26765281680262
873 3 13.94300900092946 14.63711037056154 28.16913204200655
874 5 13.94300900092946 19.51614716074871 2.816913204200654
875 4 13.94300900092946 19.51614716074871 19.71839242940458
876 2 13.94300900092946 19.51614716074872 28.16913204200655
877 3 13.94300900092946 24.39518395093589 11.26765281680262
878 2 13.94300900092946 24.39518395093589 28.16913204200655
879 3 13.94300900092947 2.43951839509359 7.042283010501638
880 4 13.94300900092947 7.318555185280766 7.042283010501638
881 2 13.94300900092947 12.19759197546795 7.042283010501638
882 3 13.94300900092947 12.19759197546795 23.94376223570556
883 4 13.94300900092947 12.19759197546795 40.84524146090949
884 3 13.94300900092947 14.63711037056153 19.71839242940458
885 4 13.94300900092947 17.07662876565512 15.4930226231036
886 5 13.94300900092947 17.07662876565512 23.94376223570556
887 1 13.94300900092947 17.07662876565513 7.042283010501635
888 3 13.94300900092947 19.51614716074871 11.26765281680262
889 1 13.94300900092947 21.9556655558423 7.042283010501635
890 2 13.94300900092947 21.9556655558423 40.84524146090949
891 1 13.94300900092947 21.9556655558423 15.4930226231036
892 4 13.94300900092947 21.9556655558423 23.94376223570556
893 4 13.94300900092947 24.39518395093589 2.816913204200654
894 1 13.94300900092947 24.39518395093589 36.61987165460852
895 5 13.94300900092947 24.39518395093589 19.71839242940458
896 2 13.94300900092947 26.83470234602948 7.042283010501635
897 1 13.94300900092947 26.83470234602948 15.4930226231036
898 2 13.94300900092947 26.83470234602948 23.94376223570556
899 1 13.94300900092947 26.83470234602948 40.84524146090949
900 4 14.93893821528157 0 16.90147922520393
901 4 14.93893821528157 0 33.80295845040786
902 3 14.93893821528157 2.439518395093587 38.02832825670883
903 2 14.93893821528157 4.879036790187177 16.90147922520393
904 4 14.93893821528157 4.879036790187177 33.80295845040786
905 3 14.93893821528157 7.318555185280768 38.02832825670883
906 3 14.93893821528157 9.758073580374358 33.80295845040786
907 1 14.93893821528157 14.63711037056154 33.80295845040786
908 4 14.93893821528157 17.07662876565512 38.02832825670883
909 4 14.93893821528157 19.51614716074871 33.80295845040786
910 4 14.93893821528157 2.439518395093587 12.67610941890295
911 5 14.93893821528157 2.43951839509359 21.12684903150491
912 1 14.93893821528157 2.43951839509359 29.57758864410687
913 1 14.93893821528157 7.318555185280768 12.67610941890295
914 4 14.93893821528157 7.318555185280768 21.12684903150491
915 4 14.93893821528157 7.318555185280768 29.57758864410687
916 2 14.93893821528157 12.19759197546795 29.57758864410687
917 2 14.93893821528157 12.19759197546795 12.67610941890295
918 3 14.93893821528157 17.07662876565513 29.57758864410687
919 4 14.93893821528157 21.9556655558423 29.57758864410687
920 1 14.93893821528157 26.83470234602948 29.57758864410687
921 5 14.93893821528157 0 0
922 5 14.93893821528157 0 8.450739612601964
923 5 14.93893821528157 0 25.35221883780589
924 5 14.93893821528157 2.43951839509359 4.225369806300984
925 4 14.93893821528157 4.879036790187177 8.450739612601964
926 3 14.93893821528157 4.879036790187179 2.345551423255644e-15
927 2 14.93893821528157 4.879036790187181 25.35221883780589
928 4 14.93893821528157 7.318555185280766 4.225369806300984
929 5 14.93893821528157 9.758073580374354 2.345551423255644e-15
930 1 14.93893821528157 9.758073580374354 25.35221883780589
931 1 14.93893821528157 9.758073580374356 8.450739612601964
932 4 14.93893821528157 9.758073580374358 16.90147922520393
933 1 14.93893821528157 12.19759197546795 4.225369806300984
934 1 14.93893821528157 12.19759197546795 21.12684903150491
935 3 14.93893821528157 12.19759197546795 38.02832825670883
936 1 14.93893821528157 14.63711037056153 16.90147922520393
937 2 14.93893821528157 14.63711037056154 0
938 1 14.93893821528157 14.63711037056154 8.450739612601964
939 5 14.93893821528157 14.63711037056154 25.35221883780589
940 5 14.93893821528157 17.07662876565512 12.67610941890295
941 3 14.93893821528157 17.07662876565512 21.12684903150491
942 4 14.93893821528157 17.07662876565513 4.225369806300981
943 1 14.93893821528157 19.51614716074871 0
944 2 14.93893821528157 19.51614716074871 8.450739612601962
945 5 14.93893821528157 19.51614716074871 16.90147922520393
946 4 14.93893821528157 19.51614716074872 25.35221883780589
947 4 14.93893821528157 21.9556655558423 4.225369806300981
948 4 14.93893821528157 21.9556655558423 38.02832825670883
949 4 14.93893821528157 21.9556655558423 12.67610941890294
950 2 14.93893821528157 21.9556655558423 21.12684903150491
951 1 14.93893821528157 24.39518395093589 0
952 4 14.93893821528157 24.39518395093589 8.450739612601962
953 2 14.93893821528157 24.39518395093589 25.35221883780589
954 1 14.93893821528157 24.39518395093589 33.80295845040786
955 1 14.93893821528157 24.39518395093589 16.90147922520393
956 1 14.93893821528157 26.83470234602948 4.225369806300981
957 2 14.93893821528157 26.83470234602948 12.67610941890295
958 5 14.93893821528157 26.83470234602948 21.12684903150491
959 1 14.93893821528157 26.83470234602948 38.02832825670883
960 3 15.93486742963367 2.439518395093587 35.21141505250818
961 2 15.93486742963367 4.879036790187177 39.43678485880917
962 3 15.93486742963367 7.318555185280768 35.21141505250818
963 3 15.93486742963367 17.07662876565512 35.21141505250818
964 2 15.93486742963367 0 14.08456602100328
965 1 15.93486742963367 0 30.9860452462072
966 3 15.93486742963367 4.879036790187177 14.08456602100328
967 1 15.93486742963367 4.879036790187177 30.9860452462072
968 4 15.93486742963367 9.758073580374358 30.9860452462072
969 3 15.93486742963367 14.63711037056154 30.9860452462072
970 4 15.93486742963367 19.51614716074871 30.9860452462072
971 4 15.93486742963367 0 5.633826408401311
972 4 15.93486742963367 0 22.53530563360524
973 2 15.93486742963367 0 39.43678485880917
974 5 15.93486742963367 2.439518395093587 9.859196214702292
975 3 15.93486742963367 2.43951839509359 1.408456602100329
976 4 15.93486742963367 2.43951839509359 18.30993582730426
977 4 15.93486742963367 2.43951839509359 26.76067543990622
978 3 15.93486742963367 4.879036790187177 5.633826408401311
979 5 15.93486742963367 4.879036790187181 22.53530563360524
980 5 15.93486742963367 7.318555185280766 1.408456602100329
981 5 15.93486742963367 7.318555185280768 9.859196214702292
982 1 15.93486742963367 7.318555185280768 18.30993582730426
983 2 15.93486742963367 7.318555185280768 26.76067543990622
984 5 15.93486742963367 9.758073580374354 22.53530563360524
985 2 15.93486742963367 9.758073580374356 5.633826408401311
986 2 15.93486742963367 9.758073580374358 14.08456602100328
987 5 15.93486742963367 9.758073580374358 39.43678485880917
988 1 15.93486742963367 12.19759197546795 1.408456602100329
989 3 15.93486742963367 12.19759197546795 18.30993582730426
990 4 15.93486742963367 12.19759197546795 26.76067543990622
991 4 15.93486742963367 12.19759197546795 9.859196214702292
992 4 15.93486742963367 12.19759197546795 35.21141505250818
993 3 15.93486742963367 14.63711037056154 5.633826408401311
994 3 15.93486742963367 14.63711037056154 22.53530563360524
995 2 15.93486742963367 14.63711037056154 39.43678485880917
996 1 15.93486742963367 17.07662876565512 9.859196214702292
997 4 15.93486742963367 17.07662876565512 18.30993582730426
998 4 15.93486742963367 17.07662876565513 1.408456602100327
999 4 15.93486742963367 17.07662876565513 26.76067543990622
1000 3 15.93486742963367 19.51614716074871 39.43678485880917
1001 1 15.93486742963367 19.51614716074871 14.08456602100328
1002 4 15.93486742963367 19.51614716074872 22.53530563360524
1003 3 15.93486742963367 21.9556655558423 1.408456602100327
1004 1 15.93486742963367 21.9556655558423 35.21141505250818
1005 3 15.93486742963367 21.9556655558423 9.859196214702289
1006 5 15.93486742963367 21.9556655558423 18.30993582730426
1007 2 15.93486742963367 21.9556655558423 26.76067543990622
1008 4 15.93486742963367 24.39518395093589 5.633826408401308
1009 1 15.93486742963367 24.39518395093589 22.53530563360524
1010 2 15.93486742963367 24.39518395093589 39.43678485880917
1011 3 15.93486742963367 26.83470234602948 26.76067543990622
1012 4 15.93486742963367 26.83470234602948 1.408456602100327
1013 3 15.93486742963367 26.83470234602948 9.859196214702292
1014 3 15.93486742963367 26.83470234602948 18.30993582730426
1015 1 15.93486742963367 26.83470234602948 35.21141505250818
1016 4 15.93486742963367 14.63711037056153 14.08456602100328
1017 5 15.93486742963367 19.51614716074871 5.633826408401308
1018 5 15.93486742963367 24.39518395093589 30.9860452462072
1019 2 15.93486742963367 24.39518395093589 14.08456602100328
1020 4 16.93079664398577 4.879036790187177 36.61987165460852
1021 5 16.93079664398578 0 2.816913204200656
1022 5 16.93079664398578 0 11.26765281680262
1023 2 16.93079664398578 0 19.71839242940458
1024 3 16.93079664398578 0 28.16913204200655
1025 2 16.93079664398578 0 36.61987165460852
1026 5 16.93079664398578 2.439518395093587 7.042283010501638
1027 2 16.93079664398578 2.439518395093587 32.39450184830753
1028 4 16.93079664398578 2.43951839509359 15.4930226231036
1029 4 16.93079664398578 2.43951839509359 23.94376223570556
1030 2 16.93079664398578 2.43951839509359 40.84524146090949
1031 3 16.93079664398578 4.879036790187177 2.816913204200656
1032 1 16.93079664398578 4.879036790187177 11.26765281680262
1033 5 16.93079664398578 4.879036790187177 28.16913204200655
1034 5 16.93079664398578 4.879036790187181 19.71839242940458
1035 1 16.93079664398578 7.318555185280768 7.042283010501638
1036 2 16.93079664398578 7.318555185280768 15.4930226231036
1037 3 16.93079664398578 7.318555185280768 23.94376223570556
1038 1 16.93079664398578 7.318555185280768 32.39450184830753
1039 1 16.93079664398578 7.318555185280768 40.84524146090949
1040 4 16.93079664398578 9.758073580374354 19.71839242940458
1041 5 16.93079664398578 9.758073580374356 2.816913204200656
1042 5 16.93079664398578 9.758073580374358 11.26765281680262
1043 4 16.93079664398578 9.758073580374358 28.16913204200655
1044 4 16.93079664398578 9.758073580374358 36.61987165460852
1045 1 16.93079664398578 12.19759197546795 15.4930226231036
1046 5 16.93079664398578 12.19759197546795 23.94376223570556
1047 1 16.93079664398578 12.19759197546795 40.84524146090949
1048 5 16.93079664398578 12.19759197546795 7.042283010501638
1049 3 16.93079664398578 12.19759197546795 32.39450184830753
1050 5 16.93079664398578 14.63711037056154 2.816913204200656
1051 5 16.93079664398578 14.63711037056154 19.71839242940458
1052 5 16.93079664398578 14.63711037056154 28.16913204200655
1053 3 16.93079664398578 14.63711037056154 36.61987165460852
1054 2 16.93079664398578 17.07662876565512 7.042283010501638
1055 1 16.93079664398578 17.07662876565512 15.4930226231036
1056 2 16.93079664398578 17.07662876565512 32.39450184830753
1057 2 16.93079664398578 17.07662876565512 40.84524146090949
1058 4 16.93079664398578 17.07662876565513 23.94376223570556
1059 1 16.93079664398578 19.51614716074871 36.61987165460852
1060 1 16.93079664398578 19.51614716074871 11.26765281680262
1061 2 16.93079664398578 19.51614716074871 28.16913204200655
1062 2 16.93079664398578 19.51614716074872 19.71839242940458
1063 3 16.93079664398578 21.9556655558423 32.39450184830753
1064 4 16.93079664398578 21.9556655558423 7.042283010501635
1065 3 16.93079664398578 21.9556655558423 15.4930226231036
1066 3 16.93079664398578 21.9556655558423 23.94376223570556
1067 1 16.93079664398578 21.9556655558423 40.84524146090949
1068 3 16.93079664398578 24.39518395093589 2.816913204200654
1069 1 16.93079664398578 24.39518395093589 19.71839242940458
1070 5 16.93079664398578 24.39518395093589 36.61987165460852
1071 4 16.93079664398578 26.83470234602948 23.94376223570556
1072 2 16.93079664398578 26.83470234602948 7.042283010501638
1073 1 16.93079664398578 26.83470234602948 15.4930226231036
1074 2 16.93079664398578 26.83470234602948 32.39450184830753
1075 3 16.93079664398578 14.63711037056153 11.26765281680262
1076 1 16.93079664398578 19.51614716074871 2.816913204200654
1077 4 16.93079664398578 24.39518395093589 28.16913204200655
1078 5 16.93079664398578 24.39518395093589 11.26765281680262
1079 3 16.93079664398578 26.83470234602948 40.84524146090949
1080 4 17.92672585833788 0 0
1081 2 17.92672585833788 0 8.450739612601964
1082 4 17.92672585833788 0 16.90147922520393
1083 2 17.92672585833788 0 25.35221883780589
1084 2 17.92672585833788 0 33.80295845040786
1085 2 17.92672585833788 2.439518395093587 4.225369806300984
1086 4 17.92672585833788 2.439518395093587 29.57758864410687
1087 1 17.92672585833788 2.43951839509359 12.67610941890295
1088 2 17.92672585833788 2.43951839509359 21.12684903150491
1089 5 17.92672585833788 2.43951839509359 38.02832825670883
1090 5 17.92672585833788 4.879036790187177 0
1091 2 17.92672585833788 4.879036790187177 8.450739612601964
1092 5 17.92672585833788 4.879036790187177 25.35221883780589
1093 2 17.92672585833788 4.879036790187177 33.80295845040786
1094 4 17.92672585833788 4.879036790187181 16.90147922520393
1095 2 17.92672585833788 7.318555185280768 4.225369806300984
1096 4 17.92672585833788 7.318555185280768 12.67610941890295
1097 5 17.92672585833788 7.318555185280768 21.12684903150491
1098 4 17.92672585833788 7.318555185280768 29.57758864410687
1099 1 17.92672585833788 7.318555185280768 38.02832825670883
1100 1 17.92672585833788 9.758073580374354 16.90147922520393
1101 4 17.92672585833788 9.758073580374356 0
1102 4 17.92672585833788 9.758073580374358 8.450739612601964
1103 4 17.92672585833788 9.758073580374358 25.35221883780589
1104 2 17.92672585833788 9.758073580374358 33.80295845040786
1105 3 17.92672585833788 12.19759197546795 21.12684903150491
1106 4 17.92672585833788 12.19759197546795 38.02832825670883
1107 2 17.92672585833788 12.19759197546795 4.225369806300984
1108 4 17.92672585833788 14.63711037056154 0
1109 1 17.92672585833788 14.63711037056154 16.90147922520393
1110 4 17.92672585833788 14.63711037056154 25.3522188378059
1111 4 17.92672585833788 14.63711037056154 33.80295845040786
1112 1 17.92672585833788 17.07662876565512 29.57758864410687
1113 4 17.92672585833788 17.07662876565512 38.02832825670883
1114 1 17.92672585833788 17.07662876565513 21.12684903150491
1115 4 17.92672585833788 19.51614716074871 33.80295845040786
1116 4 17.92672585833788 19.51614716074871 8.450739612601964
1117 3 17.92672585833788 19.51614716074871 25.35221883780589
1118 2 17.92672585833788 19.51614716074872 16.90147922520393
1119 3 17.92672585833788 21.9556655558423 21.12684903150491
1120 2 17.92672585833788 21.9556655558423 38.02832825670883
1121 3 17.92672585833788 24.39518395093589 16.90147922520393
1122 2 17.92672585833788 24.39518395093589 42.25369806300982
1123 2 17.92672585833788 24.39518395093589 33.80295845040786
1124 1 17.92672585833788 26.83470234602948 21.12684903150491
1125 1 17.92672585833788 12.19759197546795 12.67610941890295
1126 5 17.92672585833788 12.19759197546795 29.57758864410687
1127 1 17.92672585833788 14.63711037056153 8.450739612601964
1128 3 17.92672585833788 17.07662876565512 4.225369806300984
1129 3 17.92672585833788 17.07662876565512 12.67610941890295
1130 5 17.92672585833788 19.51614716074871 42.25369806300982
1131 5 17.92672585833788 21.9556655558423 29.57758864410687
1132 5 17.92672585833788 21.9556655558423 4.225369806300981
1133 1 17.92672585833788 21.9556655558423 12.67610941890295
1134 5 17.92672585833788 24.39518395093589 25.35221883780589
1135 3 17.92672585833788 24.39518395093589 8.450739612601964
1136 4 17.92672585833788 26.83470234602948 4.225369806300984
1137 4 17.92672585833788 26.83470234602948 12.67610941890295
1138 3 17.92672585833788 26.83470234602948 38.02832825670883
1139 1 17.92672585833788 26.83470234602948 29.57758864410687
1140 4 18.92265507268998 0 5.633826408401311
1141 4 18.92265507268998 0 22.53530563360524
1142 1 18.92265507268998 0 39.43678485880917
1143 4 18.92265507268998 2.439518395093587 1.408456602100327
1144 4 18.92265507268998 2.439518395093587 26.76067543990622
1145 4 18.92265507268998 2.43951839509359 9.859196214702292
1146 2 18.92265507268998 2.43951839509359 18.30993582730426
1147 5 18.92265507268998 2.43951839509359 35.21141505250818
1148 1 18.92265507268998 4.879036790187177 5.633826408401311
1149 5 18.92265507268998 4.879036790187177 22.53530563360524
1150 5 18.92265507268998 4.879036790187177 30.9860452462072
1151 2 18.92265507268998 7.318555185280768 1.408456602100327
1152 2 18.92265507268998 7.318555185280768 9.859196214702292
1153 4 18.92265507268998 7.318555185280768 18.30993582730426
1154 1 18.92265507268998 7.318555185280768 26.76067543990622
1155 3 18.92265507268998 7.318555185280768 35.21141505250818
1156 5 18.92265507268998 9.758073580374354 39.43678485880917
1157 4 18.92265507268998 9.758073580374358 22.53530563360524
1158 1 18.92265507268998 12.19759197546795 18.30993582730426
1159 2 18.92265507268998 12.19759197546795 35.21141505250818
1160 1 18.92265507268998 12.19759197546795 1.408456602100327
1161 1 18.92265507268998 14.63711037056154 22.53530563360524
1162 2 18.92265507268998 17.07662876565512 26.76067543990622
1163 2 18.92265507268998 17.07662876565512 35.21141505250818
1164 2 18.92265507268998 17.07662876565513 18.30993582730426
1165 3 18.92265507268998 19.51614716074871 22.53530563360524
1166 1 18.92265507268998 19.51614716074872 39.43678485880917
1167 3 18.92265507268998 21.9556655558423 18.30993582730426
1168 1 18.92265507268998 21.9556655558423 35.21141505250818
1169 5 18.92265507268998 26.83470234602948 18.30993582730426
1170 2 18.92265507268999 0 14.08456602100327
1171 3 18.92265507268999 0 30.9860452462072
1172 2 18.92265507268999 4.879036790187181 14.08456602100327
1173 1 18.92265507268999 4.879036790187181 39.43678485880917
1174 4 18.92265507268999 9.758073580374354 14.08456602100327
1175 3 18.92265507268999 9.758073580374358 5.633826408401311
1176 1 18.92265507268999 9.758073580374358 30.9860452462072
1177 4 18.92265507268999 12.19759197546795 9.859196214702292
1178 2 18.92265507268999 12.19759197546795 26.76067543990622
1179 3 18.92265507268999 14.63711037056153 39.43678485880917
1180 4 18.92265507268999 14.63711037056153 5.633826408401311
1181 5 18.92265507268999 14.63711037056154 14.08456602100327
1182 4 18.92265507268999 14.63711037056154 30.9860452462072
1183 2 18.92265507268999 17.07662876565512 1.408456602100327
1184 3 18.92265507268999 17.07662876565512 9.859196214702292
1185 3 18.92265507268999 19.51614716074871 30.9860452462072
1186 4 18.92265507268999 19.51614716074871 5.633826408401311
1187 3 18.92265507268999 19.51614716074872 14.08456602100327
1188 3 18.92265507268999 21.9556655558423 26.76067543990622
1189 5 18.92265507268999 21.9556655558423 1.408456602100325
1190 5 18.92265507268999 21.9556655558423 9.859196214702292
1191 2 18.92265507268999 24.39518395093589 14.08456602100327
1192 4 18.92265507268999 24.39518395093589 22.53530563360524
1193 3 18.92265507268999 24.39518395093589 39.43678485880917
1194 3 18.92265507268999 24.39518395093589 5.633826408401311
1195 3 18.92265507268999 24.39518395093589 30.9860452462072
1196 1 18.92265507268999 26.83470234602948 1.408456602100327
1197 3 18.92265507268999 26.83470234602948 9.859196214702292
1198 2 18.92265507268999 26.83470234602948 26.76067543990622
1199 2 18.92265507268999 26.83470234602948 35.21141505250818
1200 1 19.91858428704209 0 2.816913204200654
1201 1 19.91858428704209 0 19.71839242940458
1202 1 19.91858428704209 0 36.61987165460851
1203 3 19.91858428704209 2.439518395093587 23.94376223570556
1204 4 19.91858428704209 4.879036790187177 2.816913204200654
1205 4 19.91858428704209 4.879036790187177 19.71839242940458
1206 5 19.91858428704209 4.879036790187177 28.16913204200655
1207 1 19.91858428704209 7.318555185280768 23.94376223570556
1208 2 19.91858428704209 9.758073580374354 36.61987165460852
1209 1 19.91858428704209 9.758073580374358 19.71839242940458
1210 2 19.91858428704209 14.63711037056154 19.71839242940459
1211 4 19.91858428704209 17.07662876565512 23.94376223570556
1212 2 19.91858428704209 19.51614716074871 19.71839242940458
1213 2 19.91858428704209 19.51614716074872 36.61987165460852
1214 5 19.91858428704209 0 11.26765281680262
1215 5 19.91858428704209 0 28.16913204200655
1216 3 19.91858428704209 2.43951839509359 7.042283010501638
1217 2 19.91858428704209 2.43951839509359 15.4930226231036
1218 3 19.91858428704209 2.43951839509359 32.39450184830753
1219 5 19.91858428704209 2.43951839509359 40.84524146090949
1220 4 19.91858428704209 4.879036790187181 11.26765281680262
1221 5 19.91858428704209 7.318555185280768 7.042283010501638
1222 5 19.91858428704209 7.318555185280768 15.4930226231036
1223 5 19.91858428704209 7.318555185280768 32.39450184830753
1224 2 19.91858428704209 7.318555185280768 40.84524146090949
1225 4 19.91858428704209 9.758073580374354 11.26765281680262
1226 4 19.91858428704209 9.758073580374358 2.816913204200654
1227 5 19.91858428704209 9.758073580374358 28.16913204200655
1228 1 19.91858428704209 12.19759197546794 40.84524146090949
1229 1 19.91858428704209 12.19759197546795 7.042283010501638
1230 4 19.91858428704209 12.19759197546795 15.4930226231036
1231 4 19.91858428704209 12.19759197546795 32.39450184830753
1232 4 19.91858428704209 12.19759197546795 23.94376223570556
1233 5 19.91858428704209 14.63711037056154 11.26765281680262
1234 3 19.91858428704209 14.63711037056154 28.16913204200655
1235 5 19.91858428704209 17.07662876565512 7.042283010501638
1236 4 19.91858428704209 17.07662876565512 32.39450184830753
1237 2 19.91858428704209 17.07662876565513 15.4930226231036
1238 4 19.91858428704209 17.07662876565513 40.84524146090949
1239 5 19.91858428704209 19.51614716074871 28.16913204200655
1240 3 19.91858428704209 19.51614716074871 2.816913204200654
1241 5 19.91858428704209 19.51614716074872 11.26765281680262
1242 1 19.91858428704209 21.9556655558423 23.94376223570556
1243 1 19.91858428704209 21.9556655558423 7.042283010501638
1244 5 19.91858428704209 21.9556655558423 15.4930226231036
1245 1 19.91858428704209 21.9556655558423 32.39450184830753
1246 5 19.91858428704209 21.9556655558423 40.84524146090949
1247 4 19.91858428704209 24.39518395093589 11.26765281680262
1248 5 19.91858428704209 24.39518395093589 28.16913204200655
1249 5 19.91858428704209 26.83470234602948 15.4930226231036
1250 5 19.91858428704209 26.83470234602948 40.84524146090949
1251 2 19.91858428704209 26.83470234602948 7.042283010501638
1252 1 19.91858428704209 26.83470234602948 23.94376223570556
1253 5 19.91858428704209 4.879036790187181 36.61987165460852
1254 5 19.91858428704209 14.63711037056153 36.61987165460852
1255 2 19.91858428704209 14.63711037056153 2.816913204200654
1256 5 19.91858428704209 24.39518395093589 19.71839242940458
1257 4 19.91858428704209 24.39518395093589 36.61987165460852
1258 3 19.91858428704209 24.39518395093589 2.816913204200654
1259 1 19.91858428704209 26.83470234602948 32.39450184830753
1260 4 20.91451350139419 2.439518395093587 21.12684903150491
1261 1 20.91451350139419 4.879036790187177 25.35221883780589
1262 5 20.91451350139419 7.318555185280768 21.12684903150491
1263 5 20.91451350139419 17.07662876565512 21.12684903150491
1264 4 20.91451350139419 0 0
1265 2 20.91451350139419 0 8.450739612601964
1266 5 20.91451350139419 0 16.90147922520393
1267 5 20.91451350139419 0 25.35221883780589
1268 4 20.91451350139419 0 33.80295845040786
1269 3 20.91451350139419 2.43951839509359 4.225369806300981
1270 4 20.91451350139419 2.43951839509359 12.67610941890295
1271 2 20.91451350139419 2.43951839509359 29.57758864410687
1272 1 20.91451350139419 4.879036790187177 0
1273 4 20.91451350139419 4.879036790187177 16.90147922520393
1274 1 20.91451350139419 4.879036790187181 8.450739612601964
1275 1 20.91451350139419 7.318555185280768 4.225369806300981
1276 2 20.91451350139419 7.318555185280768 12.67610941890295
1277 4 20.91451350139419 7.318555185280768 29.57758864410687
1278 4 20.91451350139419 9.758073580374354 8.450739612601964
1279 3 20.91451350139419 9.758073580374354 33.80295845040786
1280 5 20.91451350139419 9.758073580374358 0
1281 1 20.91451350139419 9.758073580374358 16.90147922520393
1282 5 20.91451350139419 9.758073580374358 25.3522188378059
1283 5 20.91451350139419 12.19759197546795 12.67610941890295
1284 2 20.91451350139419 12.19759197546795 29.57758864410687
1285 2 20.91451350139419 14.63711037056154 8.450739612601964
1286 2 20.91451350139419 14.63711037056154 16.90147922520393
1287 1 20.91451350139419 14.63711037056154 25.3522188378059
1288 3 20.91451350139419 17.07662876565512 29.57758864410687
1289 3 20.91451350139419 17.07662876565513 12.67610941890295
1290 5 20.91451350139419 19.51614716074871 25.3522188378059
1291 3 20.91451350139419 19.51614716074871 0
1292 5 20.91451350139419 19.51614716074871 16.90147922520393
1293 3 20.91451350139419 19.51614716074872 8.450739612601964
1294 3 20.91451350139419 19.51614716074872 33.80295845040786
1295 3 20.91451350139419 21.9556655558423 12.67610941890295
1296 3 20.91451350139419 21.9556655558423 29.57758864410687
1297 4 20.91451350139419 24.39518395093589 8.450739612601964
1298 4 20.91451350139419 24.39518395093589 25.35221883780589
1299 3 20.91451350139419 26.83470234602948 12.67610941890295
1300 1 20.9145135013942 2.43951839509359 38.02832825670883
1301 2 20.9145135013942 4.879036790187181 33.80295845040786
1302 1 20.9145135013942 7.318555185280768 38.02832825670883
1303 3 20.9145135013942 12.19759197546794 38.02832825670883
1304 5 20.9145135013942 12.19759197546795 4.225369806300981
1305 4 20.9145135013942 12.19759197546795 21.12684903150491
1306 3 20.9145135013942 14.63711037056153 33.80295845040786
1307 4 20.9145135013942 14.63711037056153 0
1308 5 20.9145135013942 17.07662876565512 4.225369806300981
1309 5 20.9145135013942 17.07662876565513 38.02832825670883
1310 5 20.9145135013942 21.9556655558423 21.12684903150491
1311 3 20.9145135013942 21.9556655558423 4.225369806300981
1312 2 20.9145135013942 21.9556655558423 38.02832825670883
1313 4 20.9145135013942 24.39518395093589 16.90147922520393
1314 2 20.9145135013942 24.39518395093589 33.80295845040786
1315 5 20.9145135013942 24.39518395093589 0
1316 2 20.9145135013942 26.83470234602948 38.02832825670883
1317 1 20.9145135013942 26.83470234602948 4.225369806300981
1318 2 20.9145135013942 26.83470234602948 29.57758864410687
1319 2 20.9145135013942 26.83470234602948 21.12684903150491
1320 3 21.9104427157463 4.879036790187177 22.53530563360524
1321 3 21.9104427157463 0 14.08456602100327
1322 5 21.9104427157463 0 30.9860452462072
1323 3 21.9104427157463 2.439518395093587 18.30993582730425
1324 4 21.9104427157463 2.43951839509359 1.408456602100327
1325 3 21.9104427157463 2.43951839509359 9.859196214702292
1326 4 21.9104427157463 2.43951839509359 26.76067543990622
1327 1 21.9104427157463 4.879036790187177 14.08456602100327
1328 5 21.9104427157463 7.318555185280768 1.408456602100327
1329 4 21.9104427157463 7.318555185280768 9.859196214702292
1330 4 21.9104427157463 7.318555185280768 18.30993582730425
1331 1 21.9104427157463 7.318555185280768 26.76067543990622
1332 2 21.9104427157463 9.758073580374354 30.9860452462072
1333 1 21.9104427157463 9.758073580374358 14.08456602100327
1334 4 21.9104427157463 12.19759197546795 9.859196214702292
1335 3 21.9104427157463 12.19759197546795 26.76067543990622
1336 5 21.9104427157463 14.63711037056154 14.08456602100328
1337 4 21.9104427157463 17.07662876565512 18.30993582730425
1338 5 21.9104427157463 17.07662876565512 26.76067543990622
1339 2 21.9104427157463 17.07662876565513 9.859196214702292
1340 5 21.9104427157463 19.51614716074871 14.08456602100327
1341 2 21.9104427157463 19.51614716074872 30.9860452462072
1342 2 21.9104427157463 21.9556655558423 9.859196214702292
1343 2 21.9104427157463 21.9556655558423 26.76067543990622
1344 5 21.9104427157463 26.83470234602948 9.859196214702292
1345 5 21.9104427157463 0 5.633826408401308
1346 4 21.9104427157463 0 22.53530563360524
1347 5 21.9104427157463 0 39.43678485880917
1348 2 21.9104427157463 2.43951839509359 35.21141505250818
1349 2 21.9104427157463 4.879036790187177 39.43678485880917
1350 4 21.9104427157463 4.879036790187181 5.633826408401308
1351 2 21.9104427157463 4.879036790187181 30.9860452462072
1352 5 21.9104427157463 7.318555185280768 35.21141505250818
1353 5 21.9104427157463 9.758073580374354 5.633826408401308
1354 3 21.9104427157463 9.758073580374354 39.43678485880917
1355 1 21.9104427157463 9.758073580374358 22.53530563360524
1356 3 21.9104427157463 12.19759197546794 35.21141505250818
1357 3 21.9104427157463 12.19759197546795 1.408456602100327
1358 3 21.9104427157463 12.19759197546795 18.30993582730425
1359 2 21.9104427157463 14.63711037056153 30.9860452462072
1360 4 21.9104427157463 14.63711037056154 5.633826408401308
1361 3 21.9104427157463 14.63711037056154 22.53530563360524
1362 4 21.9104427157463 14.63711037056154 39.43678485880917
1363 2 21.9104427157463 17.07662876565512 1.408456602100327
1364 5 21.9104427157463 17.07662876565513 35.21141505250818
1365 2 21.9104427157463 19.51614716074871 22.53530563360524
1366 5 21.9104427157463 19.51614716074871 39.43678485880917
1367 3 21.9104427157463 19.51614716074872 5.633826408401308
1368 3 21.9104427157463 21.9556655558423 18.30993582730425
1369 5 21.9104427157463 21.9556655558423 1.408456602100327
1370 5 21.9104427157463 21.9556655558423 35.21141505250818
1371 2 21.9104427157463 24.39518395093589 5.633826408401308
1372 5 21.9104427157463 24.39518395093589 14.08456602100327
1373 3 21.9104427157463 24.39518395093589 30.9860452462072
1374 4 21.9104427157463 24.39518395093589 39.43678485880917
1375 3 21.9104427157463 24.39518395093589 22.53530563360524
1376 4 21.9104427157463 26.83470234602948 35.21141505250818
1377 3 21.9104427157463 26.83470234602948 1.408456602100327
1378 4 21.9104427157463 26.83470234602948 26.76067543990622
1379 2 21.9104427157463 26.83470234602948 18.30993582730425
1380 3 22.9063719300984 0 11.26765281680262
1381 5 22.9063719300984 0 28.16913204200655
1382 3 22.9063719300984 2.439518395093587 15.4930226231036
1383 3 22.9063719300984 4.879036790187177 11.26765281680262
1384 4 22.9063719300984 4.879036790187177 19.71839242940458
1385 4 22.9063719300984 7.318555185280768 15.4930226231036
1386 3 22.9063719300984 9.758073580374354 28.16913204200655
1387 3 22.9063719300984 9.758073580374358 11.26765281680262
1388 1 22.9063719300984 14.63711037056154 11.26765281680262
1389 1 22.9063719300984 17.07662876565512 15.4930226231036
1390 5 22.9063719300984 19.51614716074871 11.26765281680262
1391 2 22.9063719300984 19.51614716074872 28.16913204200655
1392 2 22.90637193009841 0 2.816913204200654
1393 4 22.90637193009841 0 19.71839242940458
1394 4 22.90637193009841 0 36.61987165460852
1395 2 22.90637193009841 2.439518395093587 40.84524146090949
1396 4 22.90637193009841 2.43951839509359 7.042283010501635
1397 1 22.90637193009841 2.43951839509359 23.94376223570556
1398 3 22.90637193009841 2.43951839509359 32.39450184830753
1399 1 22.90637193009841 4.879036790187177 36.61987165460852
1400 3 22.90637193009841 4.879036790187181 2.816913204200654
1401 3 22.90637193009841 4.879036790187181 28.16913204200655
1402 2 22.90637193009841 7.318555185280764 40.84524146090949
1403 4 22.90637193009841 7.318555185280768 7.042283010501635
1404 1 22.90637193009841 7.318555185280768 23.94376223570556
1405 4 22.90637193009841 7.318555185280768 32.39450184830753
1406 2 22.90637193009841 9.758073580374354 2.816913204200654
1407 4 22.90637193009841 9.758073580374354 36.61987165460852
1408 2 22.90637193009841 9.758073580374358 19.71839242940458
1409 5 22.90637193009841 12.19759197546794 32.39450184830753
1410 3 22.90637193009841 12.19759197546795 7.042283010501635
1411 3 22.90637193009841 12.19759197546795 23.94376223570556
1412 1 22.90637193009841 12.19759197546795 15.4930226231036
1413 5 22.90637193009841 12.19759197546795 40.84524146090949
1414 5 22.90637193009841 14.63711037056153 28.16913204200655
1415 2 22.90637193009841 14.63711037056154 2.816913204200654
1416 5 22.90637193009841 14.63711037056154 19.71839242940458
1417 3 22.90637193009841 14.63711037056154 36.61987165460852
1418 3 22.90637193009841 17.07662876565512 23.94376223570556
1419 1 22.90637193009841 17.07662876565512 40.84524146090949
1420 2 22.90637193009841 17.07662876565513 7.042283010501635
1421 4 22.90637193009841 17.07662876565513 32.39450184830753
1422 5 22.90637193009841 19.51614716074871 19.71839242940458
1423 3 22.90637193009841 19.51614716074871 36.61987165460852
1424 5 22.90637193009841 19.51614716074872 2.816913204200654
1425 2 22.90637193009841 21.9556655558423 15.4930226231036
1426 3 22.90637193009841 21.9556655558423 40.84524146090949
1427 1 22.90637193009841 21.9556655558423 7.042283010501635
1428 3 22.90637193009841 21.9556655558423 23.94376223570556
1429 3 22.90637193009841 21.9556655558423 32.39450184830753
1430 1 22.90637193009841 24.39518395093589 2.816913204200654
1431 5 22.90637193009841 24.39518395093589 11.26765281680262
1432 3 22.90637193009841 24.39518395093589 28.16913204200655
1433 1 22.90637193009841 24.39518395093589 36.61987165460852
1434 5 22.90637193009841 24.39518395093589 19.71839242940458
1435 4 22.90637193009841 26.83470234602948 7.042283010501635
1436 5 22.90637193009841 26.83470234602948 32.39450184830753
1437 4 22.90637193009841 26.83470234602948 23.94376223570556
1438 2 22.90637193009841 26.83470234602948 15.4930226231036
1439 3 22.90637193009841 26.83470234602948 40.84524146090949
1440 3 23.9023011444505 2.439518395093587 12.67610941890295
1441 2 23.9023011444505 4.879036790187177 16.90147922520393
1442 1 23.9023011444505 7.318555185280768 12.67610941890295
1443 4 23.9023011444505 17.07662876565512 12.67610941890295
1444 2 23.90230114445051 0 0
1445 5 23.90230114445051 0 8.450739612601962
1446 3 23.90230114445051 0 16.90147922520393
1447 3 23.90230114445051 0 25.35221883780589
1448 5 23.90230114445051 0 33.80295845040786
1449 4 23.90230114445051 2.439518395093587 38.02832825670884
1450 2 23.90230114445051 2.43951839509359 4.225369806300981
1451 5 23.90230114445051 2.43951839509359 21.12684903150491
1452 1 23.90230114445051 2.43951839509359 29.57758864410687
1453 5 23.90230114445051 4.879036790187177 8.450739612601962
1454 4 23.90230114445051 4.879036790187177 33.80295845040786
1455 5 23.90230114445051 4.879036790187181 0
1456 2 23.90230114445051 4.879036790187181 25.3522188378059
1457 1 23.90230114445051 7.318555185280764 38.02832825670883
1458 5 23.90230114445051 7.318555185280768 4.225369806300981
1459 2 23.90230114445051 7.318555185280768 21.12684903150491
1460 2 23.90230114445051 7.318555185280768 29.57758864410687
1461 3 23.90230114445051 9.758073580374354 0
1462 2 23.90230114445051 9.758073580374354 25.3522188378059
1463 2 23.90230114445051 9.758073580374354 33.80295845040786
1464 4 23.90230114445051 9.758073580374358 8.450739612601962
1465 1 23.90230114445051 9.758073580374358 16.90147922520393
1466 1 23.90230114445051 12.19759197546794 29.57758864410687
1467 5 23.90230114445051 12.19759197546795 4.225369806300981
1468 3 23.90230114445051 12.19759197546795 21.12684903150491
1469 3 23.90230114445051 12.19759197546795 12.67610941890295
1470 5 23.90230114445051 12.19759197546795 38.02832825670883
1471 3 23.90230114445051 14.63711037056153 25.3522188378059
1472 2 23.90230114445051 14.63711037056154 0
1473 4 23.90230114445051 14.63711037056154 8.450739612601968
1474 2 23.90230114445051 14.63711037056154 16.90147922520393
1475 3 23.90230114445051 14.63711037056154 33.80295845040786
1476 1 23.90230114445051 17.07662876565512 21.12684903150491
1477 4 23.90230114445051 17.07662876565512 38.02832825670883
1478 2 23.90230114445051 17.07662876565513 4.225369806300981
1479 2 23.90230114445051 17.07662876565513 29.57758864410687
1480 2 23.90230114445051 19.51614716074871 16.90147922520393
1481 3 23.90230114445051 19.51614716074871 8.450739612601962
1482 4 23.90230114445051 19.51614716074871 33.80295845040786
1483 2 23.90230114445051 19.51614716074872 0
1484 5 23.90230114445051 19.51614716074872 25.3522188378059
1485 1 23.90230114445051 21.9556655558423 12.67610941890295
1486 4 23.90230114445051 21.9556655558423 38.02832825670883
1487 1 23.90230114445051 21.9556655558423 4.225369806300981
1488 4 23.90230114445051 21.9556655558423 21.12684903150491
1489 1 23.90230114445051 21.9556655558423 29.57758864410687
1490 1 23.90230114445051 24.39518395093589 0
1491 3 23.90230114445051 24.39518395093589 8.450739612601962
1492 2 23.90230114445051 24.39518395093589 25.3522188378059
1493 2 23.90230114445051 24.39518395093589 33.80295845040786
1494 2 23.90230114445051 24.39518395093589 16.90147922520393
1495 3 23.90230114445051 26.83470234602948 4.225369806300981
1496 5 23.90230114445051 26.83470234602948 29.57758864410687
1497 5 23.90230114445051 26.83470234602948 12.67610941890295
1498 5 23.90230114445051 26.83470234602948 38.02832825670883
1499 3 23.90230114445051 26.83470234602948 21.12684903150491
1500 3 24.89823035880261 4.879036790187177 14.08456602100327
1501 5 24.89823035880261 0 5.633826408401308
1502 1 24.89823035880261 0 14.08456602100327
1503 1 24.89823035880261 0 22.53530563360523
1504 3 24.89823035880261 0 30.9860452462072
1505 4 24.89823035880261 0 39.43678485880917
1506 2 24.89823035880261 2.439518395093587 9.859196214702289
1507 4 24.89823035880261 2.439518395093587 35.21141505250819
1508 2 24.89823035880261 2.43951839509359 1.408456602100327
1509 3 24.89823035880261 2.43951839509359 18.30993582730425
1510 2 24.89823035880261 2.43951839509359 26.76067543990622
1511 1 24.89823035880261 4.879036790187174 39.43678485880917
1512 1 24.89823035880261 4.879036790187177 5.633826408401308
1513 3 24.89823035880261 4.879036790187177 30.9860452462072
1514 2 24.89823035880261 7.318555185280764 35.21141505250818
1515 3 24.89823035880261 7.318555185280768 1.408456602100327
1516 1 24.89823035880261 7.318555185280768 9.859196214702289
1517 4 24.89823035880261 7.318555185280768 18.30993582730425
1518 1 24.89823035880261 7.318555185280768 26.76067543990622
1519 1 24.89823035880261 9.758073580374354 22.53530563360524
1520 5 24.89823035880261 9.758073580374354 30.9860452462072
1521 1 24.89823035880261 9.758073580374358 5.633826408401308
1522 1 24.89823035880261 9.758073580374358 14.08456602100328
1523 5 24.89823035880261 9.758073580374358 39.43678485880917
1524 5 24.89823035880261 12.19759197546794 26.76067543990622
1525 4 24.89823035880261 12.19759197546795 1.408456602100327
1526 4 24.89823035880261 12.19759197546795 18.30993582730425
1527 5 24.89823035880261 12.19759197546795 9.859196214702289
1528 3 24.89823035880261 12.19759197546795 35.21141505250818
1529 2 24.89823035880261 14.63711037056154 5.633826408401313
1530 1 24.89823035880261 14.63711037056154 14.08456602100328
1531 1 24.89823035880261 14.63711037056154 30.9860452462072
1532 3 24.89823035880261 14.63711037056154 39.43678485880917
1533 5 24.89823035880261 17.07662876565512 9.859196214702289
1534 4 24.89823035880261 17.07662876565512 18.30993582730425
1535 4 24.89823035880261 17.07662876565512 35.21141505250818
1536 1 24.89823035880261 17.07662876565513 1.408456602100327
1537 4 24.89823035880261 17.07662876565513 26.76067543990622
1538 3 24.89823035880261 19.51614716074871 14.08456602100328
1539 4 24.89823035880261 19.51614716074871 39.43678485880917
1540 4 24.89823035880261 19.51614716074871 5.633826408401308
1541 5 24.89823035880261 19.51614716074871 30.9860452462072
1542 5 24.89823035880261 19.51614716074872 22.53530563360524
1543 2 24.89823035880261 21.9556655558423 9.859196214702289
1544 2 24.89823035880261 21.9556655558423 35.21141505250818
1545 2 24.89823035880261 21.9556655558423 1.408456602100327
1546 4 24.89823035880261 21.9556655558423 18.30993582730425
1547 1 24.89823035880261 21.9556655558423 26.76067543990622
1548 4 24.89823035880261 24.39518395093589 30.9860452462072
1549 2 24.89823035880261 24.39518395093589 14.08456602100327
1550 2 24.89823035880261 24.39518395093589 39.43678485880917
1551 3 24.89823035880261 26.83470234602948 1.408456602100327
1552 3 24.89823035880261 26.83470234602948 26.76067543990622
1553 4 24.89823035880261 26.83470234602948 9.859196214702289
1554 4 24.89823035880261 26.83470234602948 35.21141505250818
1555 5 24.89823035880262 4.879036790187181 22.53530563360524
1556 5 24.89823035880262 14.63711037056153 22.53530563360524
1557 2 24.89823035880262 24.39518395093589 5.633826408401308
1558 3 24.89823035880262 24.39518395093589 22.53530563360524
1559 3 24.89823035880262 26.83470234602948 18.30993582730425
1560 2 25.89415957315472 0 2.816913204200654
1561 3 25.89415957315472 0 11.26765281680262
1562 2 25.89415957315472 0 19.71839242940458
1563 3 25.89415957315472 0 28.16913204200655
1564 1 25.89415957315472 0 36.61987165460852
1565 5 25.89415957315472 2.439518395093587 7.042283010501635
1566 5 25.89415957315472 2.439518395093587 32.39450184830753
1567 5 25.89415957315472 2.439518395093587 40.84524146090949
1568 2 25.89415957315472 2.43951839509359 15.4930226231036
1569 3 25.89415957315472 4.879036790187174 36.61987165460852
1570 5 25.89415957315472 4.879036790187177 2.816913204200654
1571 3 25.89415957315472 4.879036790187177 11.26765281680262
1572 3 25.89415957315472 4.879036790187177 28.16913204200655
1573 2 25.89415957315472 7.318555185280764 32.39450184830753
1574 4 25.89415957315472 7.318555185280768 7.042283010501635
1575 3 25.89415957315472 7.318555185280768 15.4930226231036
1576 2 25.89415957315472 7.318555185280768 40.84524146090949
1577 2 25.89415957315472 9.758073580374354 19.71839242940458
1578 5 25.89415957315472 9.758073580374354 28.16913204200655
1579 5 25.89415957315472 9.758073580374358 2.816913204200654
1580 4 25.89415957315472 9.758073580374358 11.26765281680262
1581 5 25.89415957315472 9.758073580374358 36.61987165460852
1582 1 25.89415957315472 12.19759197546795 15.4930226231036
1583 4 25.89415957315472 12.19759197546795 40.84524146090949
1584 3 25.89415957315472 12.19759197546795 32.39450184830753
1585 1 25.89415957315472 14.63711037056154 2.816913204200659
1586 2 25.89415957315472 14.63711037056154 11.26765281680262
1587 4 25.89415957315472 14.63711037056154 28.16913204200655
1588 2 25.89415957315472 14.63711037056154 36.61987165460852
1589 1 25.89415957315472 17.07662876565512 7.042283010501635
1590 5 25.89415957315472 17.07662876565512 15.4930226231036
1591 1 25.89415957315472 17.07662876565512 32.39450184830753
1592 5 25.89415957315472 19.51614716074871 11.26765281680262
1593 2 25.89415957315472 19.51614716074871 36.61987165460852
1594 3 25.89415957315472 19.51614716074871 2.816913204200654
1595 2 25.89415957315472 19.51614716074871 28.16913204200655
1596 1 25.89415957315472 19.51614716074872 19.71839242940458
1597 5 25.89415957315472 21.9556655558423 32.39450184830753
1598 2 25.89415957315472 21.9556655558423 15.4930226231036
1599 5 25.89415957315472 21.9556655558423 40.84524146090949
1600 3 25.89415957315472 24.39518395093589 28.16913204200655
1601 1 25.89415957315472 24.39518395093589 11.26765281680262
1602 3 25.89415957315472 24.39518395093589 36.61987165460852
1603 2 25.89415957315472 26.83470234602948 40.84524146090949
1604 4 25.89415957315472 26.83470234602948 32.39450184830753
1605 2 25.89415957315472 2.43951839509359 23.94376223570556
1606 2 25.89415957315472 4.879036790187181 19.71839242940458
1607 1 25.89415957315472 7.318555185280768 23.94376223570556
1608 1 25.89415957315472 12.19759197546794 23.94376223570556
1609 3 25.89415957315472 12.19759197546795 7.042283010501635
1610 2 25.89415957315472 14.63711037056153 19.71839242940458
1611 1 25.89415957315472 17.07662876565512 40.84524146090949
1612 4 25.89415957315472 17.07662876565513 23.94376223570556
1613 2 25.89415957315472 21.9556655558423 7.042283010501635
1614 5 25.89415957315472 21.9556655558423 23.94376223570556
1615 2 25.89415957315472 24.39518395093589 2.816913204200654
1616 1 25.89415957315472 24.39518395093589 19.71839242940458
1617 1 25.89415957315472 26.83470234602948 23.94376223570556
1618 1 25.89415957315472 26.83470234602948 15.4930226231036
1619 2 25.89415957315472 26.83470234602948 7.042283010501635
1620 2 26.89008878750682 0 0
1621 4 26.89008878750682 0 16.90147922520393
1622 1 26.89008878750682 0 33.80295845040786
1623 1 26.89008878750682 2.439518395093587 4.225369806300981
1624 3 26.89008878750682 2.439518395093587 29.57758864410688
1625 4 26.89008878750682 2.439518395093587 38.02832825670884
1626 4 26.89008878750682 2.43951839509359 12.67610941890294
1627 2 26.89008878750682 4.879036790187174 33.80295845040786
1628 3 26.89008878750682 4.879036790187177 0
1629 2 26.89008878750682 4.879036790187177 8.450739612601962
1630 2 26.89008878750682 7.318555185280764 29.57758864410687
1631 5 26.89008878750682 7.318555185280768 4.225369806300981
1632 2 26.89008878750682 7.318555185280768 12.67610941890294
1633 4 26.89008878750682 7.318555185280768 38.02832825670884
1634 1 26.89008878750682 9.758073580374354 16.90147922520393
1635 5 26.89008878750682 9.758073580374358 0
1636 2 26.89008878750682 9.758073580374358 33.80295845040786
1637 4 26.89008878750682 12.19759197546795 12.67610941890294
1638 5 26.89008878750682 12.19759197546795 38.02832825670883
1639 4 26.89008878750682 12.19759197546795 29.57758864410687
1640 5 26.89008878750682 14.63711037056154 4.691102846511288e-15
1641 5 26.89008878750682 14.63711037056154 33.80295845040786
1642 4 26.89008878750682 17.07662876565512 4.225369806300981
1643 3 26.89008878750682 17.07662876565512 12.67610941890294
1644 2 26.89008878750682 17.07662876565512 29.57758864410687
1645 5 26.89008878750682 19.51614716074871 33.80295845040786
1646 5 26.89008878750682 19.51614716074871 0
1647 5 26.89008878750682 19.51614716074872 16.90147922520393
1648 1 26.89008878750682 21.9556655558423 29.57758864410687
1649 4 26.89008878750682 21.9556655558423 12.67610941890294
1650 4 26.89008878750682 21.9556655558423 38.02832825670883
1651 2 26.89008878750682 24.39518395093589 33.80295845040786
1652 5 26.89008878750682 26.83470234602948 38.02832825670883
1653 4 26.89008878750682 26.83470234602948 29.57758864410687
1654 5 26.89008878750682 0 8.450739612601962
1655 4 26.89008878750682 0 25.3522188378059
1656 3 26.89008878750682 2.43951839509359 21.12684903150491
1657 2 26.89008878750682 4.879036790187177 25.3522188378059
1658 5 26.89008878750682 4.879036790187181 16.90147922520393
1659 5 26.89008878750682 7.318555185280768 21.12684903150491
1660 5 26.89008878750682 9.758073580374354 25.3522188378059
1661 1 26.89008878750682 9.758073580374358 8.450739612601968
1662 2 26.89008878750682 12.19759197546794 21.12684903150491
1663 1 26.89008878750682 12.19759197546795 4.225369806300981
1664 4 26.89008878750682 14.63711037056153 16.90147922520393
1665 5 26.89008878750682 14.63711037056154 8.450739612601968
1666 1 26.89008878750682 14.63711037056154 25.3522188378059
1667 4 26.89008878750682 17.07662876565512 38.02832825670883
1668 2 26.89008878750682 17.07662876565513 21.12684903150491
1669 1 26.89008878750682 19.51614716074871 8.450739612601968
1670 3 26.89008878750682 19.51614716074871 25.3522188378059
1671 4 26.89008878750682 21.9556655558423 4.225369806300981
1672 5 26.89008878750682 21.9556655558423 21.12684903150491
1673 5 26.89008878750682 24.39518395093589 0
1674 4 26.89008878750682 24.39518395093589 16.90147922520393
1675 3 26.89008878750682 24.39518395093589 25.3522188378059
1676 1 26.89008878750682 24.39518395093589 8.450739612601962
1677 1 26.89008878750682 26.83470234602948 21.12684903150491
1678 2 26.89008878750682 26.83470234602948 4.225369806300981
1679 3 26.89008878750683 26.83470234602948 12.67610941890294
1680 2 27.88601800185892 0 14.08456602100327
1681 3 27.88601800185892 0 30.9860452462072
1682 2 27.88601800185892 0 39.43678485880917
1683 5 27.88601800185892 2.439518395093587 1.408456602100327
1684 1 27.88601800185892 2.439518395093587 35.21141505250819
1685 3 27.88601800185892 4.879036790187174 30.9860452462072
1686 5 27.88601800185892 4.879036790187177 5.633826408401308
1687 3 27.88601800185892 4.879036790187181 39.43678485880917
1688 5 27.88601800185892 7.318555185280768 1.408456602100327
1689 4 27.88601800185892 7.318555185280768 35.21141505250819
1690 3 27.88601800185892 9.758073580374354 14.08456602100328
1691 5 27.88601800185892 9.758073580374354 39.43678485880917
1692 3 27.88601800185892 9.758073580374358 30.9860452462072
1693 1 27.88601800185892 12.19759197546795 35.21141505250818
1694 3 27.88601800185892 14.63711037056154 30.9860452462072
1695 5 27.88601800185892 17.07662876565512 1.408456602100327
1696 3 27.88601800185892 19.51614716074871 30.9860452462072
1697 5 27.88601800185892 19.51614716074872 14.08456602100328
1698 2 27.88601800185892 21.9556655558423 35.21141505250818
1699 4 27.88601800185892 24.39518395093589 39.43678485880917
1700 3 27.88601800185892 24.39518395093589 30.9860452462072
1701 1 27.88601800185892 26.83470234602948 35.21141505250818
1702 2 27.88601800185893 0 5.633826408401308
1703 2 27.88601800185893 0 22.53530563360524
1704 4 27.88601800185893 2.439518395093587 26.76067543990622
1705 2 27.88601800185893 2.43951839509359 9.859196214702289
1706 5 27.88601800185893 2.43951839509359 18.30993582730425
1707 2 27.88601800185893 4.879036790187177 22.53530563360524
1708 2 27.88601800185893 7.318555185280764 26.76067543990622
1709 1 27.88601800185893 7.318555185280768 9.859196214702289
1710 2 27.88601800185893 7.318555185280768 18.30993582730425
1711 3 27.88601800185893 9.758073580374354 22.53530563360524
1712 1 27.88601800185893 9.758073580374358 5.633826408401313
1713 1 27.88601800185893 12.19759197546794 18.30993582730425
1714 3 27.88601800185893 12.19759197546795 9.859196214702289
1715 2 27.88601800185893 12.19759197546795 1.408456602100327
1716 3 27.88601800185893 12.19759197546795 26.76067543990622
1717 1 27.88601800185893 14.63711037056153 39.43678485880917
1718 5 27.88601800185893 14.63711037056154 5.633826408401313
1719 3 27.88601800185893 14.63711037056154 22.53530563360524
1720 1 27.88601800185893 17.07662876565512 9.859196214702289
1721 4 27.88601800185893 17.07662876565512 26.76067543990622
1722 3 27.88601800185893 17.07662876565512 35.21141505250818
1723 1 27.88601800185893 17.07662876565513 18.30993582730425
1724 1 27.88601800185893 19.51614716074871 5.633826408401313
1725 3 27.88601800185893 19.51614716074871 22.53530563360524
1726 4 27.88601800185893 19.51614716074872 39.43678485880917
1727 4 27.88601800185893 21.9556655558423 1.408456602100327
1728 3 27.88601800185893 21.9556655558423 26.76067543990622
1729 3 27.88601800185893 21.9556655558423 9.859196214702289
1730 4 27.88601800185893 21.9556655558423 18.30993582730425
1731 5 27.88601800185893 24.39518395093589 22.53530563360524
1732 2 27.88601800185893 24.39518395093589 5.633826408401308
1733 2 27.88601800185893 26.83470234602948 18.30993582730425
1734 3 27.88601800185893 26.83470234602948 1.408456602100327
1735 1 27.88601800185893 26.83470234602948 26.76067543990622
1736 2 27.88601800185893 4.879036790187181 14.08456602100328
1737 3 27.88601800185893 14.63711037056153 14.08456602100328
1738 3 27.88601800185893 24.39518395093589 14.08456602100328
1739 3 27.88601800185893 26.83470234602948 9.859196214702289
1740 1 28.88194721621103 0 36.61987165460852
1741 1 28.88194721621103 2.439518395093587 32.39450184830753
1742 2 28.88194721621103 2.439518395093593 40.84524146090949
1743 3 28.88194721621103 4.879036790187177 2.816913204200654
1744 4 28.88194721621103 4.879036790187181 36.61987165460852
1745 1 28.88194721621103 7.318555185280768 32.39450184830753
1746 3 28.88194721621103 9.758073580374354 36.61987165460852
1747 2 28.88194721621103 12.19759197546795 32.39450184830753
1748 2 28.88194721621103 21.9556655558423 32.39450184830753
1749 3 28.88194721621103 24.39518395093589 36.61987165460852
1750 2 28.88194721621103 26.83470234602948 32.39450184830753
1751 2 28.88194721621103 0 2.816913204200654
1752 1 28.88194721621103 0 11.26765281680262
1753 1 28.88194721621103 0 19.71839242940458
1754 5 28.88194721621103 0 28.16913204200655
1755 5 28.88194721621103 2.439518395093587 23.94376223570556
1756 3 28.88194721621103 2.43951839509359 7.042283010501635
1757 2 28.88194721621103 4.879036790187174 28.16913204200655
1758 5 28.88194721621103 4.879036790187177 19.71839242940458
1759 4 28.88194721621103 7.318555185280764 23.94376223570556
1760 2 28.88194721621103 7.318555185280768 7.042283010501635
1761 3 28.88194721621103 7.318555185280768 40.84524146090949
1762 1 28.88194721621103 9.758073580374354 11.26765281680262
1763 2 28.88194721621103 9.758073580374354 19.71839242940458
1764 5 28.88194721621103 9.758073580374358 2.816913204200659
1765 5 28.88194721621103 9.758073580374358 28.16913204200655
1766 3 28.88194721621103 12.19759197546794 40.84524146090949
1767 4 28.88194721621103 12.19759197546795 7.042283010501635
1768 2 28.88194721621103 12.19759197546795 23.94376223570556
1769 4 28.88194721621103 14.63711037056153 36.61987165460852
1770 4 28.88194721621103 14.63711037056154 2.816913204200659
1771 5 28.88194721621103 14.63711037056154 19.71839242940458
1772 2 28.88194721621103 14.63711037056154 28.16913204200655
1773 3 28.88194721621103 17.07662876565512 7.042283010501635
1774 3 28.88194721621103 17.07662876565512 23.94376223570556
1775 3 28.88194721621103 17.07662876565513 40.84524146090949
1776 5 28.88194721621103 19.51614716074871 2.816913204200659
1777 4 28.88194721621103 19.51614716074871 28.16913204200655
1778 2 28.88194721621103 19.51614716074871 19.71839242940458
1779 4 28.88194721621103 19.51614716074872 11.26765281680262
1780 5 28.88194721621103 19.51614716074872 36.61987165460852
1781 5 28.88194721621103 21.9556655558423 23.94376223570556
1782 1 28.88194721621103 21.9556655558423 7.042283010501635
1783 5 28.88194721621103 21.9556655558423 40.84524146090949
1784 4 28.88194721621103 24.39518395093589 19.71839242940458
1785 5 28.88194721621103 24.39518395093589 2.816913204200654
1786 5 28.88194721621103 24.39518395093589 28.16913204200655
1787 3 28.88194721621103 26.83470234602948 23.94376223570556
1788 4 28.88194721621104 2.43951839509359 15.4930226231036
1789 2 28.88194721621104 4.879036790187181 11.26765281680262
1790 5 28.88194721621104 7.318555185280768 15.4930226231036
1791 1 28.88194721621104 12.19759197546794 15.4930226231036
1792 2 28.88194721621104 14.63711037056153 11.26765281680262
1793 1 28.88194721621104 17.07662876565512 32.39450184830753
1794 4 28.88194721621104 17.07662876565513 15.4930226231036
1795 3 28.88194721621104 21.9556655558423 15.4930226231036
1796 4 28.88194721621104 24.39518395093589 11.26765281680262
1797 1 28.88194721621104 26.83470234602948 15.4930226231036
1798 1 28.88194721621104 26.83470234602948 40.84524146090949
1799 5 28.88194721621104 26.83470234602948 7.042283010501635
1800 2 29.87787643056313 0 33.80295845040786
1801 5 29.87787643056313 2.439518395093593 38.02832825670884
1802 5 29.87787643056313 4.879036790187177 0
1803 1 29.87787643056313 4.879036790187181 33.80295845040786
1804 3 29.87787643056313 9.758073580374354 33.80295845040786
1805 1 29.87787643056313 24.39518395093589 33.80295845040786
1806 1 29.87787643056313 0 8.450739612601962
1807 3 29.87787643056313 0 25.3522188378059
1808 4 29.87787643056313 2.439518395093587 21.12684903150491
1809 4 29.87787643056313 2.439518395093587 29.57758864410687
1810 5 29.87787643056313 2.43951839509359 4.225369806300981
1811 2 29.87787643056313 4.879036790187174 25.3522188378059
1812 1 29.87787643056313 7.318555185280764 21.12684903150491
1813 4 29.87787643056313 7.318555185280768 4.225369806300981
1814 3 29.87787643056313 7.318555185280768 29.57758864410687
1815 3 29.87787643056313 7.318555185280768 38.02832825670884
1816 3 29.87787643056313 9.758073580374354 8.450739612601968
1817 4 29.87787643056313 9.758073580374358 25.3522188378059
1818 4 29.87787643056313 12.19759197546794 38.02832825670884
1819 2 29.87787643056313 12.19759197546795 4.225369806300981
1820 2 29.87787643056313 12.19759197546795 29.57758864410687
1821 4 29.87787643056313 12.19759197546795 21.12684903150491
1822 5 29.87787643056313 14.63711037056154 25.3522188378059
1823 3 29.87787643056313 17.07662876565512 4.225369806300981
1824 1 29.87787643056313 17.07662876565512 21.12684903150491
1825 3 29.87787643056313 17.07662876565513 38.02832825670883
1826 2 29.87787643056313 19.51614716074871 25.3522188378059
1827 1 29.87787643056313 19.51614716074872 8.450739612601968
1828 5 29.87787643056313 21.9556655558423 21.12684903150491
1829 2 29.87787643056313 21.9556655558423 4.225369806300981
1830 3 29.87787643056313 21.9556655558423 29.57758864410687
1831 3 29.87787643056313 21.9556655558423 38.02832825670883
1832 1 29.87787643056313 24.39518395093589 25.3522188378059
1833 2 29.87787643056313 26.83470234602948 29.57758864410687
1834 4 29.87787643056313 26.83470234602948 21.12684903150491
1835 1 29.87787643056314 0 0
1836 5 29.87787643056314 0 16.90147922520393
1837 5 29.87787643056314 2.43951839509359 12.67610941890294
1838 1 29.87787643056314 4.879036790187177 16.90147922520393
1839 4 29.87787643056314 4.879036790187181 8.450739612601968
1840 5 29.87787643056314 7.318555185280768 12.67610941890294
1841 2 29.87787643056314 9.758073580374354 16.90147922520393
1842 5 29.87787643056314 9.758073580374358 4.691102846511288e-15
1843 1 29.87787643056314 12.19759197546794 12.67610941890294
1844 2 29.87787643056314 14.63711037056153 8.450739612601968
1845 2 29.87787643056314 14.63711037056153 33.80295845040786
1846 5 29.87787643056314 14.63711037056154 4.691102846511288e-15
1847 1 29.87787643056314 14.63711037056154 16.90147922520393
1848 5 29.87787643056314 17.07662876565512 29.57758864410687
1849 1 29.87787643056314 17.07662876565513 12.67610941890294
1850 4 29.87787643056314 19.51614716074871 4.691102846511288e-15
1851 5 29.87787643056314 19.51614716074871 16.90147922520393
1852 3 29.87787643056314 19.51614716074872 33.80295845040786
1853 4 29.87787643056314 21.9556655558423 12.67610941890294
1854 5 29.87787643056314 24.39518395093589 8.450739612601968
1855 5 29.87787643056314 24.39518395093589 16.90147922520393
1856 2 29.87787643056314 24.39518395093589 0
1857 1 29.87787643056314 26.83470234602948 12.67610941890294
1858 4 29.87787643056314 26.83470234602948 38.02832825670883
1859 4 29.87787643056314 26.83470234602948 4.225369806300981
1860 4 30.87380564491523 2.439518395093593 35.21141505250819
1861 4 30.87380564491524 0 5.633826408401308
1862 5 30.87380564491524 0 22.53530563360524
1863 1 30.87380564491524 0 30.9860452462072
1864 1 30.87380564491524 0 39.43678485880917
1865 2 30.87380564491524 2.439518395093587 26.76067543990622
1866 2 30.87380564491524 4.879036790187174 22.53530563360524
1867 2 30.87380564491524 4.879036790187181 30.9860452462072
1868 5 30.87380564491524 4.879036790187181 39.43678485880917
1869 5 30.87380564491524 7.318555185280768 26.76067543990622
1870 2 30.87380564491524 9.758073580374354 5.633826408401313
1871 1 30.87380564491524 9.758073580374354 30.9860452462072
1872 4 30.87380564491524 9.758073580374358 22.53530563360524
1873 2 30.87380564491524 12.19759197546795 26.76067543990622
1874 2 30.87380564491524 14.63711037056154 22.53530563360524
1875 2 30.87380564491524 14.63711037056154 39.43678485880917
1876 3 30.87380564491524 19.51614716074871 22.53530563360524
1877 4 30.87380564491524 19.51614716074871 39.43678485880917
1878 2 30.87380564491524 19.51614716074872 5.633826408401313
1879 5 30.87380564491524 21.9556655558423 26.76067543990622
1880 5 30.87380564491524 24.39518395093589 30.9860452462072
1881 1 30.87380564491524 24.39518395093589 22.53530563360524
1882 3 30.87380564491524 26.83470234602948 26.76067543990622
1883 3 30.87380564491524 0 14.08456602100328
1884 1 30.87380564491524 2.439518395093587 18.30993582730426
1885 4 30.87380564491524 2.43951839509359 1.408456602100327
1886 2 30.87380564491524 2.43951839509359 9.859196214702289
1887 2 30.87380564491524 4.879036790187177 14.08456602100328
1888 3 30.87380564491524 4.879036790187181 5.633826408401313
1889 1 30.87380564491524 7.318555185280764 18.30993582730425
1890 5 30.87380564491524 7.318555185280768 1.408456602100327
1891 3 30.87380564491524 7.318555185280768 9.859196214702289
1892 3 30.87380564491524 7.318555185280768 35.21141505250819
1893 2 30.87380564491524 9.758073580374354 14.08456602100328
1894 1 30.87380564491524 9.758073580374354 39.43678485880917
1895 2 30.87380564491524 12.19759197546794 9.859196214702289
1896 5 30.87380564491524 12.19759197546794 35.21141505250819
1897 1 30.87380564491524 12.19759197546795 1.408456602100327
1898 1 30.87380564491524 12.19759197546795 18.30993582730425
1899 1 30.87380564491524 14.63711037056153 5.633826408401313
1900 5 30.87380564491524 14.63711037056153 30.9860452462072
1901 3 30.87380564491524 14.63711037056154 14.08456602100328
1902 1 30.87380564491524 17.07662876565512 1.408456602100327
1903 3 30.87380564491524 17.07662876565512 18.30993582730425
1904 3 30.87380564491524 17.07662876565512 26.76067543990622
1905 2 30.87380564491524 17.07662876565513 9.859196214702289
1906 1 30.87380564491524 17.07662876565513 35.21141505250818
1907 2 30.87380564491524 19.51614716074871 14.08456602100328
1908 4 30.87380564491524 19.51614716074872 30.9860452462072
1909 2 30.87380564491524 21.9556655558423 18.30993582730425
1910 4 30.87380564491524 21.9556655558423 1.408456602100327
1911 3 30.87380564491524 21.9556655558423 9.859196214702289
1912 4 30.87380564491524 21.9556655558423 35.21141505250818
1913 3 30.87380564491524 24.39518395093589 5.633826408401313
1914 4 30.87380564491524 24.39518395093589 14.08456602100328
1915 1 30.87380564491524 24.39518395093589 39.43678485880917
1916 3 30.87380564491524 26.83470234602948 9.859196214702289
1917 1 30.87380564491524 26.83470234602948 35.21141505250818
1918 5 30.87380564491524 26.83470234602948 1.408456602100327
1919 4 30.87380564491524 26.83470234602948 18.30993582730425
1920 2 31.86973485926734 0 28.16913204200655
1921 2 31.86973485926734 2.439518395093587 23.94376223570556
1922 5 31.86973485926734 2.439518395093593 32.39450184830753
1923 5 31.86973485926734 4.879036790187181 28.16913204200655
1924 4 31.86973485926734 7.318555185280768 23.94376223570556
1925 1 31.86973485926734 9.758073580374354 28.16913204200655
1926 3 31.86973485926734 12.19759197546795 23.94376223570556
1927 4 31.86973485926734 17.07662876565512 40.84524146090949
1928 3 31.86973485926734 21.9556655558423 23.94376223570556
1929 2 31.86973485926734 24.39518395093589 28.16913204200655
1930 5 31.86973485926734 26.83470234602948 23.94376223570556
1931 2 31.86973485926735 0 2.816913204200654
1932 4 31.86973485926735 0 11.26765281680262
1933 3 31.86973485926735 0 19.71839242940458
1934 3 31.86973485926735 0 36.61987165460852
1935 2 31.86973485926735 2.439518395093587 15.4930226231036
1936 1 31.86973485926735 2.439518395093587 40.84524146090949
1937 5 31.86973485926735 2.43951839509359 7.042283010501635
1938 1 31.86973485926735 4.879036790187174 19.71839242940458
1939 4 31.86973485926735 4.879036790187177 11.26765281680262
1940 1 31.86973485926735 4.879036790187181 2.816913204200659
1941 5 31.86973485926735 4.879036790187181 36.61987165460852
1942 3 31.86973485926735 7.318555185280764 15.4930226231036
1943 1 31.86973485926735 7.318555185280768 7.042283010501635
1944 1 31.86973485926735 7.318555185280768 32.39450184830753
1945 4 31.86973485926735 7.318555185280768 40.84524146090949
1946 3 31.86973485926735 9.758073580374354 2.816913204200659
1947 5 31.86973485926735 9.758073580374354 11.26765281680262
1948 1 31.86973485926735 9.758073580374354 36.61987165460852
1949 5 31.86973485926735 9.758073580374358 19.71839242940458
1950 2 31.86973485926735 12.19759197546794 7.042283010501635
1951 3 31.86973485926735 12.19759197546794 32.39450184830753
1952 1 31.86973485926735 12.19759197546795 15.4930226231036
1953 2 31.86973485926735 12.19759197546795 40.84524146090949
1954 5 31.86973485926735 14.63711037056153 2.816913204200659
1955 4 31.86973485926735 14.63711037056153 28.16913204200655
1956 3 31.86973485926735 14.63711037056154 11.26765281680262
1957 5 31.86973485926735 14.63711037056154 19.71839242940458
1958 3 31.86973485926735 14.63711037056154 36.61987165460852
1959 1 31.86973485926735 17.07662876565512 15.4930226231036
1960 1 31.86973485926735 17.07662876565512 23.94376223570556
1961 1 31.86973485926735 17.07662876565513 7.042283010501635
1962 3 31.86973485926735 17.07662876565513 32.39450184830753
1963 5 31.86973485926735 19.51614716074871 19.71839242940458
1964 3 31.86973485926735 19.51614716074871 11.26765281680262
1965 4 31.86973485926735 19.51614716074871 36.61987165460852
1966 2 31.86973485926735 19.51614716074872 2.816913204200659
1967 1 31.86973485926735 19.51614716074872 28.16913204200655
1968 2 31.86973485926735 21.9556655558423 15.4930226231036
1969 4 31.86973485926735 21.9556655558423 40.84524146090949
1970 4 31.86973485926735 21.9556655558423 7.042283010501635
1971 4 31.86973485926735 21.9556655558423 32.39450184830753
1972 5 31.86973485926735 24.39518395093589 2.816913204200659
1973 3 31.86973485926735 24.39518395093589 11.26765281680262
1974 2 31.86973485926735 24.39518395093589 36.61987165460852
1975 4 31.86973485926735 24.39518395093589 19.71839242940458
1976 4 31.86973485926735 26.83470234602948 7.042283010501635
1977 1 31.86973485926735 26.83470234602948 15.4930226231036
1978 3 31.86973485926735 26.83470234602948 40.84524146090949
1979 2 31.86973485926735 26.83470234602948 32.39450184830753
1980 5 32.86566407361945 2.439518395093589 29.57758864410687
