# BCC equiatomic HfMoTaTiZr; profile=compact; x=[111]; seed=20262843

1980 atoms
5 atom types

0.0 32.86566407361945 xlo xhi
0.0 29.27422074112307 ylo yhi
0.0 42.25369806300982 zlo zhi
0 0 0 xy xz yz

Masses

1 178.49 # Hf
2 95.95 # Mo
3 180.94788 # Ta
4 47.867 # Ti
5 91.224 # Zr

Atoms # atomic

1 4 0 0 0
2 4 0 0 8.450739612601964
3 4 0 0 16.90147922520393
4 4 0 0 25.3522188378059
5 5 0 0 33.80295845040786
6 5 0 2.439518395093589 38.02832825670883
7 5 0 2.439518395093589 12.67610941890295
8 3 0 2.439518395093589 21.12684903150491
9 3 0 4.879036790187177 33.80295845040786
10 5 0 4.879036790187178 25.3522188378059
11 1 0 4.879036790187179 16.90147922520393
12 4 0 7.318555185280768 21.12684903150491
13 1 0 7.318555185280768 38.02832825670884
14 5 0 9.758073580374358 33.80295845040786
15 1 1.140256780441504e-16 2.439518395093589 4.225369806300982
16 5 2.280513560883008e-16 4.879036790187178 8.450739612601964
17 2 3.420770341324512e-16 4.879036790187178 0
18 1 4.561027121766016e-16 7.318555185280768 4.225369806300982
19 3 4.561027121766016e-16 7.318555185280768 12.67610941890295
20 1 4.561027121766016e-16 9.758073580374356 16.90147922520393
21 1 6.841540682649024e-16 9.758073580374356 0
22 4 6.841540682649024e-16 9.758073580374356 8.450739612601964
23 5 9.122054243532032e-16 7.318555185280767 29.57758864410687
24 4 9.122054243532032e-16 9.758073580374356 25.35221883780589
25 3 9.122054243532032e-16 12.19759197546795 4.225369806300982
26 3 9.122054243532032e-16 12.19759197546795 12.67610941890295
27 5 9.122054243532032e-16 12.19759197546795 21.12684903150491
28 1 9.122054243532032e-16 12.19759197546795 29.57758864410687
29 1 9.122054243532032e-16 14.63711037056153 16.90147922520393
30 4 9.122054243532032e-16 14.63711037056153 33.80295845040786
31 3 9.122054243532032e-16 14.63711037056154 8.450739612601964
32 4 9.122054243532032e-16 14.63711037056154 25.3522188378059
33 1 9.122054243532032e-16 17.07662876565512 29.57758864410687
34 5 9.122054243532032e-16 17.07662876565513 21.12684903150491
35 2 9.122054243532032e-16 19.51614716074871 25.3522188378059
36 2 9.122054243532032e-16 19.51614716074871 33.80295845040786
37 1 9.122054243532032e-16 21.9556655558423 21.12684903150491
38 4 9.122054243532032e-16 21.9556655558423 29.57758864410687
39 1 9.122054243532032e-16 24.39518395093589 33.80295845040786
40 4 9.122054243532032e-16 26.83470234602948 29.57758864410687
41 2 1.368308136529805e-15 14.63711037056154 0
42 2 1.368308136529805e-15 17.07662876565512 4.225369806300982
43 4 1.368308136529805e-15 17.07662876565512 12.67610941890295
44 2 1.368308136529805e-15 19.51614716074871 0
45 5 1.368308136529805e-15 19.51614716074871 16.90147922520393
46 3 1.824410848706406e-15 12.19759197546795 38.02832825670883
47 3 1.824410848706406e-15 17.07662876565512 38.02832825670883
48 5 1.824410848706406e-15 19.51614716074871 8.450739612601964
49 5 1.824410848706406e-15 21.9556655558423 4.225369806300982
50 4 1.824410848706406e-15 21.9556655558423 12.67610941890295
51 2 1.824410848706406e-15 21.9556655558423 38.02832825670883
52 5 1.824410848706406e-15 24.39518395093589 0
53 2 1.824410848706406e-15 24.39518395093589 8.450739612601964
54 5 1.824410848706406e-15 24.39518395093589 16.90147922520393
55 1 1.824410848706406e-15 24.39518395093589 25.3522188378059
56 1 1.824410848706406e-15 26.83470234602948 12.67610941890295
57 5 1.824410848706406e-15 26.83470234602948 4.225369806300983
58 4 1.824410848706406e-15 26.83470234602948 21.12684903150491
59 3 3.648821697412813e-15 26.83470234602948 38.02832825670883
60 2 0.9959292143521036 2.439518395093589 26.76067543990622
61 3 0.9959292143521036 2.439518395093589 35.21141505250818
62 4 0.9959292143521036 7.318555185280768 35.21141505250819
63 1 0.9959292143521046 0 5.633826408401309
64 5 0.9959292143521046 0 14.08456602100328
65 4 0.9959292143521046 0 22.53530563360524
66 3 0.9959292143521046 0 30.9860452462072
67 3 0.9959292143521046 2.439518395093589 9.859196214702292
68 3 0.9959292143521046 2.439518395093589 18.30993582730426
69 2 0.9959292143521046 4.879036790187177 30.9860452462072
70 3 0.9959292143521046 4.879036790187178 22.53530563360524
71 1 0.9959292143521046 4.879036790187179 14.08456602100328
72 1 0.9959292143521046 7.318555185280768 18.30993582730426
73 2 0.9959292143521046 9.758073580374358 30.9860452462072
74 1 0.9959292143521047 2.439518395093589 1.408456602100327
75 4 0.9959292143521048 4.879036790187178 5.633826408401309
76 5 0.995929214352105 7.318555185280768 1.408456602100327
77 5 0.995929214352105 7.318555185280768 9.859196214702292
78 3 0.995929214352105 9.758073580374356 14.08456602100328
79 2 0.9959292143521052 9.758073580374356 5.633826408401311
80 4 0.9959292143521055 0 39.43678485880917
81 4 0.9959292143521055 4.879036790187179 39.43678485880917
82 5 0.9959292143521055 7.318555185280767 26.76067543990622
83 2 0.9959292143521055 9.758073580374354 39.43678485880917
84 4 0.9959292143521055 9.758073580374356 22.53530563360524
85 2 0.9959292143521055 12.19759197546795 1.408456602100328
86 1 0.9959292143521055 12.19759197546795 9.859196214702292
87 3 0.9959292143521055 12.19759197546795 18.30993582730426
88 5 0.9959292143521055 12.19759197546795 35.21141505250818
89 1 0.9959292143521055 12.19759197546795 26.76067543990622
90 3 0.9959292143521055 14.63711037056153 14.08456602100328
91 5 0.9959292143521055 14.63711037056153 30.9860452462072
92 2 0.9959292143521055 14.63711037056154 5.633826408401309
93 3 0.9959292143521055 14.63711037056154 22.53530563360524
94 3 0.9959292143521055 14.63711037056154 39.43678485880917
95 3 0.9959292143521055 17.07662876565512 26.76067543990622
96 3 0.9959292143521055 17.07662876565512 35.21141505250818
97 1 0.9959292143521055 17.07662876565513 18.30993582730426
98 5 0.9959292143521055 19.51614716074871 22.53530563360524
99 3 0.9959292143521055 19.51614716074871 30.9860452462072
100 3 0.9959292143521055 19.51614716074871 39.43678485880917
101 4 0.9959292143521055 21.9556655558423 18.30993582730426
102 4 0.9959292143521055 21.9556655558423 26.76067543990622
103 4 0.9959292143521055 21.9556655558423 35.21141505250818
104 2 0.9959292143521055 24.39518395093589 30.9860452462072
105 3 0.9959292143521055 26.83470234602948 26.76067543990622
106 5 0.9959292143521059 17.07662876565512 1.408456602100327
107 2 0.9959292143521059 17.07662876565512 9.859196214702292
108 5 0.9959292143521059 19.51614716074871 14.08456602100328
109 4 0.9959292143521064 19.51614716074871 5.633826408401308
110 1 0.9959292143521064 21.9556655558423 1.408456602100327
111 3 0.9959292143521064 21.9556655558423 9.859196214702292
112 5 0.9959292143521064 24.39518395093589 5.633826408401311
113 2 0.9959292143521064 24.39518395093589 14.08456602100328
114 3 0.9959292143521064 24.39518395093589 22.53530563360524
115 3 0.9959292143521064 26.83470234602948 9.859196214702292
116 3 0.9959292143521064 26.83470234602948 1.408456602100328
117 5 0.9959292143521064 26.83470234602948 18.30993582730426
118 2 0.9959292143521072 24.39518395093589 39.43678485880917
119 5 0.9959292143521072 26.83470234602948 35.21141505250818
120 1 1.991858428704208 2.439518395093589 23.94376223570556
121 4 1.991858428704208 2.439518395093589 32.39450184830753
122 2 1.991858428704208 7.318555185280768 32.39450184830753
123 2 1.991858428704209 0 2.816913204200655
124 1 1.991858428704209 0 11.26765281680262
125 2 1.991858428704209 0 19.71839242940458
126 5 1.991858428704209 0 28.16913204200655
127 4 1.991858428704209 0 36.61987165460852
128 1 1.991858428704209 2.439518395093589 7.042283010501638
129 3 1.991858428704209 2.439518395093589 15.4930226231036
130 1 1.991858428704209 4.879036790187177 28.16913204200655
131 3 1.991858428704209 4.879036790187178 19.71839242940458
132 2 1.991858428704209 4.879036790187179 11.26765281680262
133 1 1.991858428704209 4.879036790187179 36.61987165460852
134 5 1.991858428704209 7.318555185280768 15.4930226231036
135 3 1.991858428704209 9.758073580374354 36.61987165460852
136 1 1.991858428704209 9.758073580374358 28.16913204200655
137 2 1.991858428704209 14.63711037056154 36.61987165460852
138 3 1.991858428704209 19.51614716074871 36.61987165460852
139 1 1.991858428704209 4.879036790187178 2.816913204200655
140 1 1.99185842870421 7.318555185280768 7.042283010501638
141 4 1.99185842870421 9.758073580374356 11.26765281680262
142 3 1.99185842870421 9.758073580374356 2.816913204200655
143 5 1.99185842870421 7.318555185280767 23.94376223570556
144 5 1.99185842870421 9.758073580374356 19.71839242940458
145 1 1.99185842870421 12.19759197546795 7.042283010501638
146 3 1.99185842870421 12.19759197546795 15.4930226231036
147 5 1.99185842870421 12.19759197546795 32.39450184830753
148 3 1.99185842870421 12.19759197546795 23.94376223570556
149 3 1.99185842870421 14.63711037056153 11.26765281680262
150 5 1.99185842870421 14.63711037056153 28.16913204200655
151 4 1.99185842870421 14.63711037056154 2.816913204200655
152 3 1.99185842870421 14.63711037056154 19.71839242940458
153 3 1.99185842870421 17.07662876565512 23.94376223570556
154 2 1.99185842870421 17.07662876565512 32.39450184830753
155 1 1.99185842870421 17.07662876565513 15.4930226231036
156 4 1.99185842870421 19.51614716074871 19.71839242940458
157 2 1.99185842870421 19.51614716074871 28.16913204200655
158 5 1.99185842870421 21.9556655558423 15.4930226231036
159 2 1.99185842870421 21.9556655558423 23.94376223570556
160 2 1.99185842870421 21.9556655558423 32.39450184830753
161 2 1.99185842870421 24.39518395093589 28.16913204200655
162 2 1.99185842870421 26.83470234602948 23.94376223570556
163 4 1.99185842870421 17.07662876565512 7.042283010501636
164 3 1.99185842870421 19.51614716074871 11.26765281680262
165 5 1.991858428704211 2.43951839509359 40.84524146090949
166 1 1.991858428704211 7.318555185280766 40.84524146090949
167 1 1.991858428704211 12.19759197546795 40.84524146090949
168 3 1.991858428704211 17.07662876565513 40.84524146090949
169 5 1.991858428704211 19.51614716074871 2.816913204200654
170 4 1.991858428704211 21.9556655558423 40.84524146090949
171 4 1.991858428704211 21.9556655558423 7.042283010501638
172 3 1.991858428704211 24.39518395093589 2.816913204200655
173 1 1.991858428704211 24.39518395093589 11.26765281680262
174 4 1.991858428704211 24.39518395093589 19.71839242940458
175 2 1.991858428704211 24.39518395093589 36.61987165460852
176 1 1.991858428704211 26.83470234602948 7.042283010501638
177 2 1.991858428704211 26.83470234602948 15.4930226231036
178 5 1.991858428704211 26.83470234602948 40.84524146090949
179 5 1.991858428704212 26.83470234602948 32.39450184830753
180 5 2.987787643056313 2.439518395093589 21.12684903150491
181 3 2.987787643056313 2.439518395093589 29.57758864410687
182 5 2.987787643056313 7.318555185280768 29.57758864410688
183 4 2.987787643056314 0 0
184 2 2.987787643056314 0 8.450739612601964
185 4 2.987787643056314 0 16.90147922520393
186 3 2.987787643056314 0 25.35221883780589
187 3 2.987787643056314 0 33.80295845040786
188 4 2.987787643056314 2.439518395093589 4.225369806300982
189 4 2.987787643056314 2.439518395093589 12.67610941890295
190 2 2.987787643056314 4.879036790187177 25.35221883780589
191 2 2.987787643056314 4.879036790187178 0
192 1 2.987787643056314 4.879036790187178 16.90147922520393
193 3 2.987787643056314 4.879036790187179 8.450739612601964
194 3 2.987787643056314 4.879036790187179 33.80295845040786
195 4 2.987787643056314 7.318555185280768 12.67610941890295
196 2 2.987787643056314 9.758073580374354 33.80295845040786
197 2 2.987787643056314 9.758073580374358 25.35221883780589
198 2 2.987787643056314 14.63711037056154 33.80295845040786
199 2 2.987787643056314 19.51614716074871 33.80295845040786
200 5 2.987787643056314 7.318555185280768 4.225369806300982
201 3 2.987787643056314 9.758073580374356 8.450739612601964
202 1 2.987787643056314 2.43951839509359 38.02832825670884
203 4 2.987787643056314 7.318555185280766 38.02832825670884
204 1 2.987787643056314 7.318555185280767 21.12684903150491
205 5 2.987787643056314 9.758073580374356 5.86387855813911e-16
206 4 2.987787643056314 9.758073580374356 16.90147922520393
207 4 2.987787643056314 12.19759197546795 4.225369806300982
208 4 2.987787643056314 12.19759197546795 12.67610941890295
209 3 2.987787643056314 12.19759197546795 29.57758864410687
210 3 2.987787643056314 12.19759197546795 38.02832825670884
211 3 2.987787643056314 12.19759197546795 21.12684903150491
212 2 2.987787643056314 14.63711037056153 8.450739612601964
213 5 2.987787643056314 14.63711037056153 25.35221883780589
214 4 2.987787643056314 14.63711037056154 0
215 2 2.987787643056314 14.63711037056154 16.90147922520393
216 1 2.987787643056314 17.07662876565512 21.12684903150491
217 5 2.987787643056314 17.07662876565512 29.57758864410687
218 1 2.987787643056314 17.07662876565513 12.67610941890295
219 2 2.987787643056314 17.07662876565513 38.02832825670883
220 2 2.987787643056314 19.51614716074871 16.90147922520393
221 3 2.987787643056314 19.51614716074871 25.35221883780589
222 3 2.987787643056314 21.9556655558423 12.67610941890295
223 2 2.987787643056314 21.9556655558423 38.02832825670883
224 4 2.987787643056314 21.9556655558423 21.12684903150491
225 5 2.987787643056314 21.9556655558423 29.57758864410687
226 3 2.987787643056314 24.39518395093589 25.35221883780589
227 4 2.987787643056314 26.83470234602948 21.12684903150491
228 1 2.987787643056314 26.83470234602948 38.02832825670883
229 2 2.987787643056315 17.07662876565512 4.225369806300982
230 4 2.987787643056315 19.51614716074871 8.450739612601964
231 2 2.987787643056315 19.51614716074871 42.25369806300982
232 2 2.987787643056315 21.9556655558423 4.225369806300982
233 2 2.987787643056315 24.39518395093589 5.86387855813911e-16
234 1 2.987787643056315 24.39518395093589 8.450739612601964
235 5 2.987787643056315 24.39518395093589 16.90147922520393
236 1 2.987787643056315 24.39518395093589 33.80295845040786
237 4 2.987787643056315 26.83470234602948 4.225369806300982
238 4 2.987787643056315 26.83470234602948 12.67610941890295
239 2 2.987787643056316 26.83470234602948 29.57758864410687
240 4 3.983716857408417 2.439518395093589 18.30993582730426
241 2 3.983716857408417 2.439518395093589 26.76067543990622
242 4 3.983716857408417 7.318555185280768 26.76067543990622
243 1 3.983716857408418 0 5.633826408401309
244 3 3.983716857408418 0 14.08456602100328
245 3 3.983716857408418 0 22.53530563360524
246 5 3.983716857408418 0 30.9860452462072
247 5 3.983716857408418 0 39.43678485880917
248 5 3.983716857408418 2.439518395093589 1.408456602100328
249 5 3.983716857408418 2.439518395093589 9.859196214702292
250 4 3.983716857408418 4.879036790187177 22.53530563360524
251 5 3.983716857408418 4.879036790187177 39.43678485880917
252 1 3.983716857408418 4.879036790187178 14.08456602100328
253 3 3.983716857408418 4.879036790187179 5.633826408401309
254 3 3.983716857408418 4.879036790187179 30.9860452462072
255 2 3.983716857408418 7.318555185280768 9.859196214702292
256 4 3.983716857408418 9.758073580374354 30.9860452462072
257 3 3.983716857408418 9.758073580374356 39.43678485880917
258 4 3.983716857408418 9.758073580374358 22.53530563360524
259 1 3.983716857408418 14.63711037056154 30.9860452462072
260 2 3.983716857408418 14.63711037056154 39.43678485880917
261 1 3.983716857408418 19.51614716074871 30.9860452462072
262 5 3.983716857408418 24.39518395093589 39.43678485880917
263 1 3.983716857408419 7.318555185280768 1.408456602100328
264 4 3.983716857408419 9.758073580374356 5.633826408401309
265 3 3.983716857408419 2.43951839509359 35.21141505250819
266 2 3.983716857408419 7.318555185280766 35.21141505250819
267 1 3.983716857408419 7.318555185280767 18.30993582730426
268 3 3.983716857408419 9.758073580374356 14.08456602100327
269 1 3.983716857408419 12.19759197546795 1.408456602100328
270 4 3.983716857408419 12.19759197546795 9.859196214702292
271 3 3.983716857408419 12.19759197546795 26.76067543990622
272 4 3.983716857408419 12.19759197546795 35.21141505250819
273 5 3.983716857408419 12.19759197546795 18.30993582730426
274 4 3.983716857408419 14.63711037056153 5.633826408401309
275 1 3.983716857408419 14.63711037056153 22.53530563360524
276 1 3.983716857408419 14.63711037056154 14.08456602100328
277 2 3.983716857408419 17.07662876565512 18.30993582730426
278 1 3.983716857408419 17.07662876565512 26.76067543990622
279 1 3.983716857408419 17.07662876565513 9.859196214702292
280 5 3.983716857408419 17.07662876565513 35.21141505250818
281 4 3.983716857408419 19.51614716074871 14.08456602100328
282 1 3.983716857408419 19.51614716074871 22.53530563360524
283 4 3.983716857408419 21.9556655558423 9.859196214702292
284 3 3.983716857408419 21.9556655558423 35.21141505250818
285 5 3.983716857408419 21.9556655558423 18.30993582730426
286 1 3.983716857408419 21.9556655558423 26.76067543990622
287 2 3.983716857408419 24.39518395093589 22.53530563360524
288 3 3.983716857408419 26.83470234602948 18.30993582730426
289 5 3.983716857408419 26.83470234602948 35.21141505250818
290 3 3.98371685740842 17.07662876565512 1.408456602100327
291 3 3.98371685740842 19.51614716074871 5.633826408401311
292 1 3.98371685740842 19.51614716074871 39.43678485880917
293 2 3.98371685740842 21.9556655558423 1.408456602100328
294 2 3.98371685740842 24.39518395093589 5.633826408401309
295 3 3.98371685740842 24.39518395093589 14.08456602100328
296 4 3.98371685740842 24.39518395093589 30.9860452462072
297 3 3.98371685740842 26.83470234602948 1.408456602100328
298 5 3.98371685740842 26.83470234602948 9.859196214702292
299 1 3.983716857408421 26.83470234602948 26.76067543990622
300 5 4.979646071760522 2.439518395093587 40.84524146090949
301 1 4.979646071760522 2.439518395093589 15.4930226231036
302 3 4.979646071760522 2.439518395093589 23.94376223570556
303 3 4.979646071760522 7.318555185280768 23.94376223570556
304 1 4.979646071760522 7.318555185280768 40.84524146090949
305 4 4.979646071760522 12.19759197546795 40.84524146090949
306 4 4.979646071760523 0 2.816913204200655
307 3 4.979646071760523 0 11.26765281680262
308 2 4.979646071760523 0 19.71839242940458
309 2 4.979646071760523 0 28.16913204200655
310 5 4.979646071760523 0 36.61987165460852
311 4 4.979646071760523 2.439518395093589 7.042283010501638
312 1 4.979646071760523 4.879036790187177 19.71839242940458
313 3 4.979646071760523 4.879036790187177 36.61987165460852
314 3 4.979646071760523 4.879036790187178 11.26765281680262
315 3 4.979646071760523 4.879036790187179 2.816913204200655
316 2 4.979646071760523 4.879036790187179 28.16913204200655
317 3 4.979646071760523 7.318555185280768 7.042283010501636
318 1 4.979646071760523 9.758073580374354 28.16913204200655
319 3 4.979646071760523 9.758073580374356 36.61987165460852
320 1 4.979646071760523 9.758073580374358 19.71839242940458
321 4 4.979646071760523 14.63711037056154 28.16913204200655
322 5 4.979646071760523 14.63711037056154 36.61987165460852
323 4 4.979646071760523 19.51614716074871 28.16913204200655
324 5 4.979646071760523 24.39518395093589 36.61987165460852
325 2 4.979646071760524 2.43951839509359 32.39450184830753
326 5 4.979646071760524 7.318555185280766 32.39450184830753
327 5 4.979646071760524 7.318555185280767 15.4930226231036
328 3 4.979646071760524 9.758073580374356 2.816913204200655
329 4 4.979646071760524 9.758073580374356 11.26765281680262
330 2 4.979646071760524 12.19759197546795 7.042283010501636
331 5 4.979646071760524 12.19759197546795 23.94376223570556
332 3 4.979646071760524 12.19759197546795 32.39450184830753
333 2 4.979646071760524 12.19759197546795 15.4930226231036
334 3 4.979646071760524 14.63711037056153 2.816913204200655
335 1 4.979646071760524 14.63711037056153 19.71839242940458
336 5 4.979646071760524 14.63711037056154 11.26765281680262
337 1 4.979646071760524 17.07662876565512 15.4930226231036
338 5 4.979646071760524 17.07662876565512 23.94376223570556
339 5 4.979646071760524 17.07662876565512 40.84524146090949
340 5 4.979646071760524 17.07662876565513 7.042283010501638
341 5 4.979646071760524 17.07662876565513 32.39450184830753
342 2 4.979646071760524 19.51614716074871 2.816913204200656
343 1 4.979646071760524 19.51614716074871 11.26765281680262
344 1 4.979646071760524 19.51614716074871 19.71839242940458
345 1 4.979646071760524 21.9556655558423 7.042283010501638
346 1 4.979646071760524 21.9556655558423 32.39450184830753
347 3 4.979646071760524 21.9556655558423 15.4930226231036
348 5 4.979646071760524 21.9556655558423 23.94376223570556
349 5 4.979646071760524 21.9556655558423 40.84524146090949
350 5 4.979646071760524 24.39518395093589 19.71839242940458
351 1 4.979646071760524 26.83470234602948 15.4930226231036
352 5 4.979646071760524 26.83470234602948 32.39450184830753
353 1 4.979646071760524 26.83470234602948 40.84524146090949
354 4 4.979646071760524 19.51614716074871 36.61987165460852
355 5 4.979646071760524 24.39518395093589 2.816913204200655
356 5 4.979646071760524 24.39518395093589 11.26765281680262
357 1 4.979646071760524 24.39518395093589 28.16913204200655
358 4 4.979646071760524 26.83470234602948 7.042283010501636
359 5 4.979646071760525 26.83470234602948 23.94376223570556
360 4 5.975575286112626 2.439518395093587 38.02832825670884
361 2 5.975575286112626 2.439518395093589 12.67610941890295
362 1 5.975575286112626 2.439518395093589 21.12684903150491
363 2 5.975575286112626 7.318555185280768 21.12684903150491
364 3 5.975575286112626 7.318555185280768 38.02832825670884
365 2 5.975575286112626 12.19759197546795 38.02832825670884
366 5 5.975575286112627 0 0
367 2 5.975575286112627 0 8.450739612601964
368 2 5.975575286112627 0 16.90147922520393
369 2 5.975575286112627 0 25.35221883780589
370 1 5.975575286112627 0 33.80295845040786
371 5 5.975575286112627 2.439518395093589 4.225369806300983
372 1 5.975575286112627 4.879036790187177 16.90147922520393
373 1 5.975575286112627 4.879036790187177 33.80295845040786
374 1 5.975575286112627 4.879036790187178 8.450739612601964
375 1 5.975575286112627 4.879036790187179 0
376 4 5.975575286112627 4.879036790187179 25.3522188378059
377 2 5.975575286112627 7.318555185280768 4.225369806300982
378 3 5.975575286112627 9.758073580374354 25.3522188378059
379 2 5.975575286112627 9.758073580374356 0
380 1 5.975575286112627 9.758073580374356 33.80295845040786
381 1 5.975575286112627 9.758073580374358 16.90147922520393
382 4 5.975575286112627 14.63711037056154 25.35221883780589
383 1 5.975575286112627 14.63711037056154 33.80295845040786
384 1 5.975575286112627 19.51614716074871 25.35221883780589
385 1 5.975575286112627 24.39518395093589 33.80295845040786
386 5 5.975575286112628 2.43951839509359 29.57758864410687
387 4 5.975575286112628 7.318555185280766 29.57758864410687
388 1 5.975575286112628 7.318555185280767 12.67610941890295
389 2 5.975575286112628 9.758073580374356 8.450739612601964
390 1 5.975575286112628 12.19759197546795 4.225369806300982
391 1 5.975575286112628 12.19759197546795 21.12684903150491
392 2 5.975575286112628 12.19759197546795 29.57758864410687
393 1 5.975575286112628 12.19759197546795 12.67610941890295
394 1 5.975575286112628 14.63711037056153 0
395 5 5.975575286112628 14.63711037056153 16.90147922520393
396 2 5.975575286112628 14.63711037056154 8.450739612601964
397 3 5.975575286112628 17.07662876565512 12.67610941890295
398 3 5.975575286112628 17.07662876565512 21.12684903150491
399 2 5.975575286112628 17.07662876565512 38.02832825670884
400 4 5.975575286112628 17.07662876565513 4.225369806300983
401 5 5.975575286112628 17.07662876565513 29.57758864410687
402 3 5.975575286112628 19.51614716074871 8.450739612601964
403 1 5.975575286112628 19.51614716074871 16.90147922520393
404 3 5.975575286112628 21.9556655558423 4.225369806300983
405 1 5.975575286112628 21.9556655558423 29.57758864410687
406 2 5.975575286112628 21.9556655558423 12.67610941890295
407 2 5.975575286112628 21.9556655558423 21.12684903150491
408 3 5.975575286112628 21.9556655558423 38.02832825670883
409 2 5.975575286112628 24.39518395093589 16.90147922520393
410 3 5.975575286112628 26.83470234602948 12.67610941890295
411 3 5.975575286112628 26.83470234602948 29.57758864410687
412 4 5.975575286112628 26.83470234602948 38.02832825670884
413 4 5.975575286112629 19.51614716074871 1.172775711627822e-15
414 4 5.975575286112629 19.51614716074871 33.80295845040786
415 2 5.975575286112629 24.39518395093589 0
416 5 5.975575286112629 24.39518395093589 8.450739612601964
417 2 5.975575286112629 24.39518395093589 25.35221883780589
418 4 5.975575286112629 26.83470234602948 4.225369806300982
419 2 5.97557528611263 26.83470234602948 21.12684903150491
420 3 6.97150450046473 0 39.43678485880917
421 2 6.97150450046473 4.879036790187177 39.43678485880917
422 4 6.97150450046473 2.439518395093587 35.21141505250819
423 2 6.97150450046473 2.439518395093589 9.859196214702292
424 2 6.97150450046473 2.439518395093589 18.30993582730426
425 2 6.97150450046473 7.318555185280768 18.30993582730426
426 1 6.97150450046473 7.318555185280768 35.21141505250819
427 5 6.97150450046473 12.19759197546795 35.21141505250819
428 2 6.971504500464731 0 5.633826408401311
429 3 6.971504500464731 0 14.08456602100327
430 3 6.971504500464731 0 22.53530563360524
431 4 6.971504500464731 0 30.9860452462072
432 2 6.971504500464731 2.439518395093589 1.408456602100328
433 3 6.971504500464731 4.879036790187177 14.08456602100327
434 4 6.971504500464731 4.879036790187177 30.9860452462072
435 2 6.971504500464731 4.879036790187178 5.633826408401311
436 2 6.971504500464731 4.879036790187179 22.53530563360524
437 5 6.971504500464731 7.318555185280768 1.408456602100327
438 2 6.971504500464731 9.758073580374354 22.53530563360524
439 1 6.971504500464731 9.758073580374356 30.9860452462072
440 4 6.971504500464731 9.758073580374358 14.08456602100327
441 1 6.971504500464731 9.758073580374358 39.43678485880917
442 5 6.971504500464731 14.63711037056154 22.53530563360524
443 3 6.971504500464731 14.63711037056154 30.9860452462072
444 3 6.971504500464731 19.51614716074871 22.53530563360524
445 5 6.971504500464731 19.51614716074871 39.43678485880917
446 5 6.971504500464731 24.39518395093589 30.9860452462072
447 3 6.971504500464733 2.43951839509359 26.76067543990622
448 1 6.971504500464733 7.318555185280766 26.76067543990622
449 1 6.971504500464733 7.318555185280767 9.859196214702292
450 2 6.971504500464733 9.758073580374356 5.633826408401308
451 4 6.971504500464733 12.19759197546795 1.408456602100327
452 1 6.971504500464733 12.19759197546795 18.30993582730426
453 3 6.971504500464733 12.19759197546795 26.76067543990622
454 3 6.971504500464733 12.19759197546795 9.859196214702292
455 3 6.971504500464733 14.63711037056153 14.08456602100327
456 2 6.971504500464733 14.63711037056154 5.633826408401311
457 2 6.971504500464733 17.07662876565512 9.859196214702292
458 1 6.971504500464733 17.07662876565512 18.30993582730426
459 3 6.971504500464733 17.07662876565512 35.21141505250819
460 2 6.971504500464733 17.07662876565513 1.408456602100328
461 3 6.971504500464733 17.07662876565513 26.76067543990622
462 1 6.971504500464733 19.51614716074871 5.633826408401311
463 1 6.971504500464733 19.51614716074871 14.08456602100327
464 5 6.971504500464733 21.9556655558423 1.408456602100328
465 2 6.971504500464733 21.9556655558423 26.76067543990622
466 2 6.971504500464733 21.9556655558423 9.859196214702292
467 1 6.971504500464733 21.9556655558423 18.30993582730426
468 5 6.971504500464733 21.9556655558423 35.21141505250818
469 4 6.971504500464733 24.39518395093589 14.08456602100327
470 1 6.971504500464733 26.83470234602948 9.859196214702292
471 5 6.971504500464733 26.83470234602948 26.76067543990622
472 5 6.971504500464733 26.83470234602948 35.21141505250819
473 4 6.971504500464734 14.63711037056153 39.43678485880917
474 3 6.971504500464734 19.51614716074871 30.9860452462072
475 5 6.971504500464734 24.39518395093589 5.633826408401311
476 4 6.971504500464734 24.39518395093589 22.53530563360524
477 5 6.971504500464734 24.39518395093589 39.43678485880917
478 2 6.971504500464734 26.83470234602948 1.408456602100327
479 3 6.971504500464735 26.83470234602948 18.30993582730426
480 1 7.967433714816835 0 36.61987165460852
481 4 7.967433714816835 4.879036790187177 36.61987165460852
482 3 7.967433714816836 2.439518395093587 32.39450184830753
483 3 7.967433714816836 2.439518395093589 7.042283010501638
484 1 7.967433714816836 2.439518395093589 15.4930226231036
485 2 7.967433714816836 2.43951839509359 40.84524146090949
486 1 7.967433714816836 7.318555185280768 15.4930226231036
487 4 7.967433714816836 7.318555185280768 32.39450184830753
488 1 7.967433714816836 7.318555185280768 40.84524146090949
489 2 7.967433714816836 12.19759197546795 32.39450184830753
490 4 7.967433714816837 0 2.816913204200655
491 4 7.967433714816837 0 11.26765281680262
492 3 7.967433714816837 0 19.71839242940458
493 2 7.967433714816837 0 28.16913204200655
494 3 7.967433714816837 4.879036790187177 11.26765281680262
495 4 7.967433714816837 4.879036790187177 28.16913204200655
496 2 7.967433714816837 4.879036790187178 2.816913204200655
497 3 7.967433714816837 4.879036790187179 19.71839242940458
498 2 7.967433714816837 9.758073580374354 19.71839242940458
499 4 7.967433714816837 9.758073580374356 28.16913204200655
500 5 7.967433714816837 9.758073580374358 11.26765281680262
501 1 7.967433714816837 9.758073580374358 36.61987165460852
502 5 7.967433714816837 14.63711037056154 19.71839242940458
503 4 7.967433714816837 14.63711037056154 28.16913204200655
504 3 7.967433714816837 19.51614716074871 19.71839242940458
505 4 7.967433714816837 19.51614716074871 36.61987165460852
506 3 7.967433714816837 24.39518395093589 28.16913204200655
507 5 7.967433714816837 2.43951839509359 23.94376223570556
508 2 7.967433714816837 7.318555185280766 23.94376223570556
509 4 7.967433714816837 7.318555185280767 7.042283010501638
510 4 7.967433714816837 9.758073580374356 2.816913204200654
511 1 7.967433714816837 12.19759197546795 15.4930226231036
512 4 7.967433714816837 12.19759197546795 23.94376223570556
513 3 7.967433714816837 12.19759197546795 40.84524146090949
514 4 7.967433714816837 12.19759197546795 7.042283010501638
515 4 7.967433714816837 14.63711037056153 11.26765281680262
516 5 7.967433714816837 14.63711037056154 2.816913204200655
517 3 7.967433714816837 17.07662876565512 7.042283010501638
518 1 7.967433714816837 17.07662876565512 15.4930226231036
519 1 7.967433714816837 17.07662876565512 32.39450184830753
520 5 7.967433714816837 17.07662876565512 40.84524146090949
521 4 7.967433714816837 17.07662876565513 23.94376223570556
522 2 7.967433714816837 19.51614716074871 2.816913204200655
523 5 7.967433714816837 19.51614716074871 11.26765281680262
524 2 7.967433714816837 21.9556655558423 23.94376223570556
525 2 7.967433714816837 21.9556655558423 7.042283010501638
526 4 7.967433714816837 21.9556655558423 15.4930226231036
527 1 7.967433714816837 21.9556655558423 32.39450184830753
528 2 7.967433714816837 21.9556655558423 40.84524146090949
529 3 7.967433714816837 24.39518395093589 11.26765281680262
530 4 7.967433714816837 26.83470234602948 7.042283010501638
531 5 7.967433714816837 26.83470234602948 23.94376223570556
532 5 7.967433714816837 26.83470234602948 32.39450184830753
533 4 7.967433714816837 26.83470234602948 40.84524146090949
534 2 7.967433714816838 14.63711037056153 36.61987165460852
535 3 7.967433714816838 19.51614716074871 28.16913204200655
536 4 7.967433714816838 24.39518395093589 2.816913204200655
537 3 7.967433714816838 24.39518395093589 19.71839242940458
538 5 7.967433714816838 24.39518395093589 36.61987165460852
539 4 7.967433714816839 26.83470234602948 15.4930226231036
540 5 8.963362929168939 0 0
541 2 8.963362929168939 0 8.450739612601964
542 2 8.963362929168939 0 16.90147922520393
543 4 8.963362929168939 0 25.3522188378059
544 2 8.963362929168939 0 33.80295845040786
545 5 8.963362929168939 2.439518395093587 29.57758864410687
546 3 8.963362929168939 2.439518395093589 4.225369806300982
547 3 8.963362929168939 2.439518395093589 12.67610941890295
548 3 8.963362929168939 2.43951839509359 38.02832825670884
549 5 8.963362929168939 4.879036790187177 8.450739612601964
550 3 8.963362929168939 4.879036790187177 25.3522188378059
551 1 8.963362929168939 4.879036790187177 33.80295845040786
552 3 8.963362929168939 4.879036790187178 0
553 3 8.963362929168939 4.879036790187179 16.90147922520393
554 3 8.963362929168939 7.318555185280768 12.67610941890295
555 3 8.963362929168939 7.318555185280768 29.57758864410687
556 3 8.963362929168939 7.318555185280768 38.02832825670884
557 3 8.963362929168939 9.758073580374354 16.90147922520393
558 1 8.963362929168939 9.758073580374356 25.3522188378059
559 4 8.963362929168939 9.758073580374358 8.450739612601964
560 3 8.963362929168939 9.758073580374358 33.80295845040786
561 4 8.963362929168939 12.19759197546795 29.57758864410687
562 1 8.963362929168939 14.63711037056154 16.90147922520393
563 2 8.963362929168939 14.63711037056154 25.3522188378059
564 2 8.963362929168939 19.51614716074871 16.90147922520393
565 2 8.963362929168939 19.51614716074871 33.80295845040786
566 2 8.963362929168939 24.39518395093589 25.35221883780589
567 4 8.963362929168941 2.43951839509359 21.12684903150491
568 2 8.963362929168941 7.318555185280766 21.12684903150491
569 2 8.963362929168941 7.318555185280767 4.225369806300982
570 2 8.963362929168941 9.758073580374356 42.25369806300982
571 1 8.963362929168941 12.19759197546795 12.67610941890295
572 2 8.963362929168941 12.19759197546795 21.12684903150491
573 4 8.963362929168941 12.19759197546795 38.02832825670884
574 5 8.963362929168941 12.19759197546795 4.225369806300982
575 4 8.963362929168941 14.63711037056153 8.450739612601964
576 5 8.963362929168941 14.63711037056154 0
577 1 8.963362929168941 17.07662876565512 4.225369806300982
578 1 8.963362929168941 17.07662876565512 12.67610941890295
579 2 8.963362929168941 17.07662876565512 29.57758864410687
580 1 8.963362929168941 17.07662876565512 38.02832825670884
581 1 8.963362929168941 17.07662876565513 21.12684903150491
582 1 8.963362929168941 19.51614716074871 0
583 1 8.963362929168941 19.51614716074871 8.450739612601964
584 4 8.963362929168941 21.9556655558423 21.12684903150491
585 3 8.963362929168941 21.9556655558423 4.225369806300982
586 2 8.963362929168941 21.9556655558423 12.67610941890295
587 2 8.963362929168941 21.9556655558423 29.57758864410687
588 2 8.963362929168941 21.9556655558423 38.02832825670884
589 1 8.963362929168941 24.39518395093589 8.450739612601964
590 3 8.963362929168941 26.83470234602948 4.225369806300982
591 3 8.963362929168941 26.83470234602948 21.12684903150491
592 1 8.963362929168941 26.83470234602948 29.57758864410687
593 3 8.963362929168941 26.83470234602948 38.02832825670884
594 4 8.963362929168943 14.63711037056153 33.80295845040786
595 1 8.963362929168943 19.51614716074871 25.35221883780589
596 4 8.963362929168943 24.39518395093589 0
597 3 8.963362929168943 24.39518395093589 16.90147922520393
598 4 8.963362929168943 24.39518395093589 33.80295845040786
599 5 8.963362929168943 26.83470234602948 12.67610941890295
600 2 9.959292143521044 0 30.9860452462072
601 1 9.959292143521044 2.439518395093587 26.76067543990622
602 3 9.959292143521044 2.439518395093589 1.408456602100327
603 5 9.959292143521044 2.439518395093589 9.859196214702292
604 5 9.959292143521044 2.43951839509359 35.21141505250818
605 5 9.959292143521044 4.879036790187177 30.9860452462072
606 1 9.959292143521044 7.318555185280768 9.859196214702294
607 1 9.959292143521044 7.318555185280768 26.76067543990622
608 2 9.959292143521044 7.318555185280768 35.21141505250818
609 5 9.959292143521044 12.19759197546795 26.76067543990622
610 2 9.959292143521045 0 5.633826408401309
611 4 9.959292143521045 0 14.08456602100327
612 4 9.959292143521045 0 22.53530563360524
613 2 9.959292143521045 0 39.43678485880917
614 4 9.959292143521045 4.879036790187177 5.633826408401309
615 1 9.959292143521045 4.879036790187177 22.53530563360524
616 4 9.959292143521045 4.879036790187179 14.08456602100328
617 2 9.959292143521045 4.879036790187181 39.43678485880917
618 1 9.959292143521045 9.758073580374354 14.08456602100328
619 4 9.959292143521045 9.758073580374354 39.43678485880917
620 2 9.959292143521045 9.758073580374356 22.53530563360524
621 2 9.959292143521045 9.758073580374358 5.633826408401309
622 1 9.959292143521045 9.758073580374358 30.9860452462072
623 4 9.959292143521045 14.63711037056154 14.08456602100327
624 5 9.959292143521045 14.63711037056154 22.53530563360524
625 5 9.959292143521045 14.63711037056154 39.43678485880917
626 4 9.959292143521045 19.51614716074871 14.08456602100327
627 2 9.959292143521045 19.51614716074871 30.9860452462072
628 3 9.959292143521045 19.51614716074872 39.43678485880917
629 4 9.959292143521045 24.39518395093589 22.53530563360524
630 1 9.959292143521045 24.39518395093589 39.43678485880917
631 3 9.959292143521047 2.43951839509359 18.30993582730426
632 3 9.959292143521047 7.318555185280766 18.30993582730426
633 5 9.959292143521047 7.318555185280767 1.408456602100327
634 1 9.959292143521047 12.19759197546795 9.859196214702292
635 3 9.959292143521047 12.19759197546795 18.30993582730426
636 5 9.959292143521047 12.19759197546795 35.21141505250818
637 3 9.959292143521047 12.19759197546795 1.408456602100327
638 4 9.959292143521047 14.63711037056153 5.633826408401309
639 3 9.959292143521047 14.63711037056153 30.9860452462072
640 1 9.959292143521047 17.07662876565512 1.408456602100327
641 1 9.959292143521047 17.07662876565512 9.859196214702292
642 3 9.959292143521047 17.07662876565512 26.76067543990622
643 3 9.959292143521047 17.07662876565512 35.21141505250818
644 4 9.959292143521047 17.07662876565513 18.30993582730425
645 3 9.959292143521047 19.51614716074871 5.633826408401309
646 4 9.959292143521047 19.51614716074871 22.53530563360524
647 5 9.959292143521047 21.9556655558423 18.30993582730425
648 4 9.959292143521047 21.9556655558423 1.408456602100327
649 1 9.959292143521047 21.9556655558423 9.859196214702292
650 3 9.959292143521047 21.9556655558423 26.76067543990622
651 1 9.959292143521047 21.9556655558423 35.21141505250818
652 3 9.959292143521047 24.39518395093589 14.08456602100327
653 4 9.959292143521047 24.39518395093589 5.633826408401309
654 1 9.959292143521047 24.39518395093589 30.9860452462072
655 4 9.959292143521047 26.83470234602948 1.408456602100327
656 2 9.959292143521047 26.83470234602948 9.859196214702292
657 4 9.959292143521047 26.83470234602948 18.30993582730425
658 5 9.959292143521047 26.83470234602948 26.76067543990622
659 3 9.959292143521047 26.83470234602948 35.21141505250818
660 5 10.95522135787315 0 28.16913204200655
661 2 10.95522135787315 4.879036790187177 28.16913204200655
662 5 10.95522135787315 2.439518395093587 23.94376223570556
663 4 10.95522135787315 2.439518395093589 7.042283010501636
664 5 10.95522135787315 2.43951839509359 32.39450184830753
665 3 10.95522135787315 2.43951839509359 40.84524146090949
666 2 10.95522135787315 7.318555185280768 7.042283010501639
667 5 10.95522135787315 7.318555185280768 23.94376223570556
668 3 10.95522135787315 7.318555185280768 32.39450184830753
669 4 10.95522135787315 7.318555185280768 40.84524146090949
670 1 10.95522135787315 12.19759197546795 40.84524146090949
671 2 10.95522135787315 12.19759197546795 23.94376223570556
672 2 10.95522135787315 17.07662876565513 40.84524146090949
673 5 10.95522135787315 21.9556655558423 40.84524146090949
674 3 10.95522135787315 26.83470234602948 40.84524146090949
675 5 10.95522135787315 0 2.816913204200654
676 3 10.95522135787315 0 11.26765281680262
677 2 10.95522135787315 0 19.71839242940458
678 1 10.95522135787315 0 36.61987165460852
679 4 10.95522135787315 2.43951839509359 15.4930226231036
680 4 10.95522135787315 4.879036790187177 2.816913204200654
681 5 10.95522135787315 4.879036790187177 19.71839242940458
682 4 10.95522135787315 4.879036790187179 11.26765281680262
683 1 10.95522135787315 4.879036790187181 36.61987165460852
684 2 10.95522135787315 7.318555185280766 15.4930226231036
685 2 10.95522135787315 9.758073580374354 11.26765281680262
686 2 10.95522135787315 9.758073580374354 36.61987165460852
687 1 10.95522135787315 9.758073580374356 19.71839242940458
688 3 10.95522135787315 9.758073580374358 2.816913204200654
689 1 10.95522135787315 9.758073580374358 28.16913204200655
690 5 10.95522135787315 12.19759197546795 7.042283010501636
691 2 10.95522135787315 12.19759197546795 15.4930226231036
692 3 10.95522135787315 12.19759197546795 32.39450184830753
693 2 10.95522135787315 14.63711037056153 2.816913204200654
694 3 10.95522135787315 14.63711037056153 28.16913204200655
695 5 10.95522135787315 14.63711037056154 11.26765281680262
696 3 10.95522135787315 14.63711037056154 19.71839242940458
697 3 10.95522135787315 14.63711037056154 36.61987165460852
698 1 10.95522135787315 17.07662876565512 7.042283010501636
699 3 10.95522135787315 17.07662876565512 23.94376223570556
700 4 10.95522135787315 17.07662876565512 32.39450184830753
701 3 10.95522135787315 17.07662876565513 15.4930226231036
702 1 10.95522135787315 19.51614716074871 2.816913204200654
703 4 10.95522135787315 19.51614716074871 11.26765281680262
704 5 10.95522135787315 19.51614716074871 19.71839242940458
705 5 10.95522135787315 19.51614716074871 28.16913204200655
706 1 10.95522135787315 19.51614716074872 36.61987165460852
707 1 10.95522135787315 21.9556655558423 15.4930226231036
708 1 10.95522135787315 21.9556655558423 7.042283010501636
709 5 10.95522135787315 21.9556655558423 23.94376223570556
710 5 10.95522135787315 21.9556655558423 32.39450184830753
711 3 10.95522135787315 24.39518395093589 11.26765281680262
712 1 10.95522135787315 24.39518395093589 19.71839242940458
713 1 10.95522135787315 24.39518395093589 36.61987165460852
714 2 10.95522135787315 24.39518395093589 2.816913204200654
715 1 10.95522135787315 24.39518395093589 28.16913204200655
716 2 10.95522135787315 26.83470234602948 15.4930226231036
717 3 10.95522135787315 26.83470234602948 23.94376223570556
718 5 10.95522135787315 26.83470234602948 32.39450184830753
719 5 10.95522135787315 26.83470234602948 7.042283010501636
720 2 11.95115057222525 0 25.35221883780589
721 4 11.95115057222525 4.879036790187177 25.35221883780589
722 2 11.95115057222525 0 0
723 1 11.95115057222525 0 8.450739612601964
724 4 11.95115057222525 0 16.90147922520393
725 1 11.95115057222525 0 33.80295845040786
726 3 11.95115057222525 2.439518395093587 21.12684903150491
727 4 11.95115057222525 2.439518395093589 4.225369806300981
728 1 11.95115057222525 2.43951839509359 12.67610941890295
729 2 11.95115057222525 2.43951839509359 29.57758864410687
730 3 11.95115057222525 2.43951839509359 38.02832825670883
731 4 11.95115057222525 4.879036790187177 0
732 3 11.95115057222525 4.879036790187177 16.90147922520393
733 5 11.95115057222525 4.879036790187179 8.450739612601966
734 5 11.95115057222525 4.879036790187181 33.80295845040786
735 1 11.95115057222525 7.318555185280766 12.67610941890295
736 3 11.95115057222525 7.318555185280768 4.225369806300984
737 1 11.95115057222525 7.318555185280768 21.12684903150491
738 4 11.95115057222525 7.318555185280768 29.57758864410687
739 5 11.95115057222525 7.318555185280768 38.02832825670883
740 2 11.95115057222525 9.758073580374354 8.450739612601966
741 3 11.95115057222525 9.758073580374354 33.80295845040786
742 3 11.95115057222525 9.758073580374356 16.90147922520393
743 2 11.95115057222525 9.758073580374358 0
744 3 11.95115057222525 9.758073580374358 25.35221883780589
745 5 11.95115057222525 12.19759197546795 4.225369806300981
746 2 11.95115057222525 12.19759197546795 12.67610941890295
747 4 11.95115057222525 12.19759197546795 29.57758864410687
748 5 11.95115057222525 12.19759197546795 38.02832825670883
749 2 11.95115057222525 12.19759197546795 21.12684903150491
750 3 11.95115057222525 14.63711037056153 0
751 5 11.95115057222525 14.63711037056154 8.450739612601964
752 4 11.95115057222525 14.63711037056154 16.90147922520393
753 3 11.95115057222525 14.63711037056154 33.80295845040786
754 2 11.95115057222525 17.07662876565512 4.225369806300981
755 1 11.95115057222525 17.07662876565512 21.12684903150491
756 2 11.95115057222525 17.07662876565512 29.57758864410687
757 1 11.95115057222525 17.07662876565513 12.67610941890295
758 3 11.95115057222525 17.07662876565513 38.02832825670883
759 4 11.95115057222525 19.51614716074871 0
760 4 11.95115057222525 19.51614716074871 8.450739612601964
761 1 11.95115057222525 19.51614716074871 25.35221883780589
762 1 11.95115057222525 19.51614716074872 33.80295845040786
763 1 11.95115057222525 21.9556655558423 12.67610941890295
764 5 11.95115057222525 21.9556655558423 4.225369806300981
765 5 11.95115057222525 21.9556655558423 21.12684903150491
766 1 11.95115057222525 21.9556655558423 29.57758864410687
767 4 11.95115057222525 21.9556655558423 38.02832825670883
768 2 11.95115057222525 24.39518395093589 16.90147922520393
769 1 11.95115057222525 24.39518395093589 33.80295845040786
770 3 11.95115057222525 24.39518395093589 0
771 1 11.95115057222525 26.83470234602948 38.02832825670883
772 1 11.95115057222525 26.83470234602948 12.67610941890295
773 2 11.95115057222525 26.83470234602948 21.12684903150491
774 4 11.95115057222525 26.83470234602948 29.57758864410687
775 2 11.95115057222526 14.63711037056153 25.35221883780589
776 5 11.95115057222526 19.51614716074871 16.90147922520393
777 1 11.95115057222526 24.39518395093589 8.450739612601964
778 1 11.95115057222526 24.39518395093589 25.35221883780589
779 4 11.95115057222526 26.83470234602948 4.225369806300981
780 4 12.94707978657736 0 5.633826408401308
781 1 12.94707978657736 0 14.08456602100328
782 4 12.94707978657736 0 22.53530563360524
783 2 12.94707978657736 0 30.9860452462072
784 5 12.94707978657736 0 39.43678485880917
785 4 12.94707978657736 2.439518395093587 18.30993582730426
786 4 12.94707978657736 2.439518395093589 1.408456602100327
787 2 12.94707978657736 2.43951839509359 26.76067543990622
788 5 12.94707978657736 2.43951839509359 35.21141505250818
789 5 12.94707978657736 4.879036790187177 14.08456602100328
790 5 12.94707978657736 4.879036790187177 22.53530563360524
791 2 12.94707978657736 4.879036790187177 39.43678485880917
792 2 12.94707978657736 4.879036790187179 5.633826408401311
793 3 12.94707978657736 4.879036790187181 30.9860452462072
794 5 12.94707978657736 7.318555185280768 1.408456602100329
795 3 12.94707978657736 7.318555185280768 18.30993582730426
796 2 12.94707978657736 7.318555185280768 26.76067543990622
797 2 12.94707978657736 7.318555185280768 35.21141505250818
798 4 12.94707978657736 9.758073580374354 5.633826408401311
799 1 12.94707978657736 9.758073580374354 30.9860452462072
800 5 12.94707978657736 9.758073580374356 14.08456602100328
801 4 12.94707978657736 9.758073580374358 22.53530563360524
802 1 12.94707978657736 9.758073580374358 39.43678485880917
803 1 12.94707978657736 12.19759197546795 35.21141505250818
804 5 12.94707978657736 12.19759197546795 18.30993582730426
805 1 12.94707978657736 14.63711037056154 5.633826408401308
806 5 12.94707978657736 14.63711037056154 14.08456602100328
807 5 12.94707978657736 14.63711037056154 30.9860452462072
808 5 12.94707978657736 14.63711037056154 39.43678485880917
809 4 12.94707978657736 17.07662876565513 35.21141505250818
810 3 12.94707978657736 19.51614716074871 5.633826408401308
811 2 12.94707978657736 19.51614716074871 22.53530563360524
812 2 12.94707978657736 19.51614716074871 39.43678485880917
813 5 12.94707978657736 19.51614716074872 30.9860452462072
814 1 12.94707978657736 21.9556655558423 35.21141505250818
815 1 12.94707978657736 24.39518395093589 14.08456602100327
816 4 12.94707978657736 24.39518395093589 30.9860452462072
817 4 12.94707978657736 26.83470234602948 35.21141505250818
818 1 12.94707978657736 2.43951839509359 9.859196214702292
819 2 12.94707978657736 7.318555185280766 9.859196214702292
820 4 12.94707978657736 12.19759197546795 1.408456602100327
821 1 12.94707978657736 12.19759197546795 9.859196214702292
822 4 12.94707978657736 12.19759197546795 26.76067543990622
823 3 12.94707978657736 17.07662876565512 1.408456602100327
824 3 12.94707978657736 17.07662876565512 18.30993582730426
825 1 12.94707978657736 17.07662876565512 26.76067543990622
826 3 12.94707978657736 17.07662876565513 9.85919621470229
827 3 12.94707978657736 21.9556655558423 9.85919621470229
828 2 12.94707978657736 21.9556655558423 1.408456602100327
829 1 12.94707978657736 21.9556655558423 18.30993582730425
830 2 12.94707978657736 21.9556655558423 26.76067543990622
831 5 12.94707978657736 26.83470234602948 9.85919621470229
832 2 12.94707978657736 26.83470234602948 18.30993582730426
833 5 12.94707978657736 26.83470234602948 26.76067543990622
834 4 12.94707978657736 14.63711037056153 22.53530563360524
835 4 12.94707978657736 19.51614716074871 14.08456602100327
836 3 12.94707978657736 24.39518395093589 5.633826408401308
837 2 12.94707978657736 24.39518395093589 39.43678485880917
838 5 12.94707978657736 24.39518395093589 22.53530563360524
839 2 12.94707978657736 26.83470234602948 1.408456602100327
840 5 13.94300900092946 0 19.71839242940458
841 4 13.94300900092946 0 36.61987165460852
842 2 13.94300900092946 2.439518395093587 15.4930226231036
843 3 13.94300900092946 2.439518395093587 40.84524146090949
844 5 13.94300900092946 2.43951839509359 23.94376223570556
845 5 13.94300900092946 2.43951839509359 32.39450184830753
846 4 13.94300900092946 4.879036790187177 19.71839242940458
847 3 13.94300900092946 4.879036790187177 36.61987165460852
848 1 13.94300900092946 7.318555185280768 15.4930226231036
849 4 13.94300900092946 7.318555185280768 23.94376223570556
850 2 13.94300900092946 7.318555185280768 32.39450184830753
851 1 13.94300900092946 7.318555185280768 40.84524146090949
852 2 13.94300900092946 9.758073580374358 36.61987165460852
853 3 13.94300900092946 12.19759197546795 32.39450184830753
854 2 13.94300900092946 12.19759197546795 15.4930226231036
855 5 13.94300900092946 14.63711037056154 36.61987165460852
856 5 13.94300900092946 17.07662876565512 40.84524146090949
857 1 13.94300900092946 17.07662876565513 32.39450184830753
858 3 13.94300900092946 19.51614716074871 36.61987165460852
859 2 13.94300900092946 21.9556655558423 32.39450184830753
860 4 13.94300900092946 26.83470234602948 32.39450184830753
861 3 13.94300900092946 0 2.816913204200654
862 2 13.94300900092946 0 11.26765281680262
863 4 13.94300900092946 0 28.16913204200655
864 2 13.94300900092946 4.879036790187177 11.26765281680262
865 3 13.94300900092946 4.879036790187179 2.816913204200656
866 2 13.94300900092946 4.879036790187181 28.16913204200655
867 4 13.94300900092946 9.758073580374354 2.816913204200656
868 1 13.94300900092946 9.758073580374354 28.16913204200655
869 2 13.94300900092946 9.758073580374356 11.26765281680262
870 4 13.94300900092946 9.758073580374358 19.71839242940458
871 4 13.94300900092946 14.63711037056154 2.816913204200654
872 1 13.94300900092946 14.63711037056154 11.26765281680262
873 1 13.94300900092946 14.63711037056154 28.16913204200655
874 1 13.94300900092946 19.51614716074871 2.816913204200654
875 2 13.94300900092946 19.51614716074871 19.71839242940458
876 4 13.94300900092946 19.51614716074872 28.16913204200655
877 2 13.94300900092946 24.39518395093589 11.26765281680262
878 1 13.94300900092946 24.39518395093589 28.16913204200655
879 3 13.94300900092947 2.43951839509359 7.042283010501638
880 1 13.94300900092947 7.318555185280766 7.042283010501638
881 3 13.94300900092947 12.19759197546795 7.042283010501638
882 5 13.94300900092947 12.19759197546795 23.94376223570556
883 3 13.94300900092947 12.19759197546795 40.84524146090949
884 4 13.94300900092947 14.63711037056153 19.71839242940458
885 1 13.94300900092947 17.07662876565512 15.4930226231036
886 5 13.94300900092947 17.07662876565512 23.94376223570556
887 4 13.94300900092947 17.07662876565513 7.042283010501635
888 5 13.94300900092947 19.51614716074871 11.26765281680262
889 3 13.94300900092947 21.9556655558423 7.042283010501635
890 1 13.94300900092947 21.9556655558423 40.84524146090949
891 2 13.94300900092947 21.9556655558423 15.4930226231036
892 4 13.94300900092947 21.9556655558423 23.94376223570556
893 3 13.94300900092947 24.39518395093589 2.816913204200654
894 5 13.94300900092947 24.39518395093589 36.61987165460852
895 3 13.94300900092947 24.39518395093589 19.71839242940458
896 5 13.94300900092947 26.83470234602948 7.042283010501635
897 2 13.94300900092947 26.83470234602948 15.4930226231036
898 3 13.94300900092947 26.83470234602948 23.94376223570556
899 5 13.94300900092947 26.83470234602948 40.84524146090949
900 5 14.93893821528157 0 16.90147922520393
901 4 14.93893821528157 0 33.80295845040786
902 5 14.93893821528157 2.439518395093587 38.02832825670883
903 1 14.93893821528157 4.879036790187177 16.90147922520393
904 2 14.93893821528157 4.879036790187177 33.80295845040786
905 3 14.93893821528157 7.318555185280768 38.02832825670883
906 2 14.93893821528157 9.758073580374358 33.80295845040786
907 3 14.93893821528157 14.63711037056154 33.80295845040786
908 3 14.93893821528157 17.07662876565512 38.02832825670883
909 2 14.93893821528157 19.51614716074871 33.80295845040786
910 1 14.93893821528157 2.439518395093587 12.67610941890295
911 4 14.93893821528157 2.43951839509359 21.12684903150491
912 2 14.93893821528157 2.43951839509359 29.57758864410687
913 1 14.93893821528157 7.318555185280768 12.67610941890295
914 3 14.93893821528157 7.318555185280768 21.12684903150491
915 5 14.93893821528157 7.318555185280768 29.57758864410687
916 5 14.93893821528157 12.19759197546795 29.57758864410687
917 4 14.93893821528157 12.19759197546795 12.67610941890295
918 4 14.93893821528157 17.07662876565513 29.57758864410687
919 1 14.93893821528157 21.9556655558423 29.57758864410687
920 1 14.93893821528157 26.83470234602948 29.57758864410687
921 1 14.93893821528157 0 0
922 3 14.93893821528157 0 8.450739612601964
923 3 14.93893821528157 0 25.35221883780589
924 1 14.93893821528157 2.43951839509359 4.225369806300984
925 4 14.93893821528157 4.879036790187177 8.450739612601964
926 2 14.93893821528157 4.879036790187179 2.345551423255644e-15
927 1 14.93893821528157 4.879036790187181 25.35221883780589
928 4 14.93893821528157 7.318555185280766 4.225369806300984
929 3 14.93893821528157 9.758073580374354 2.345551423255644e-15
930 2 14.93893821528157 9.758073580374354 25.35221883780589
931 1 14.93893821528157 9.758073580374356 8.450739612601964
932 5 14.93893821528157 9.758073580374358 16.90147922520393
933 2 14.93893821528157 12.19759197546795 4.225369806300984
934 3 14.93893821528157 12.19759197546795 21.12684903150491
935 5 14.93893821528157 12.19759197546795 38.02832825670883
936 1 14.93893821528157 14.63711037056153 16.90147922520393
937 3 14.93893821528157 14.63711037056154 0
938 4 14.93893821528157 14.63711037056154 8.450739612601964
939 1 14.93893821528157 14.63711037056154 25.35221883780589
940 5 14.93893821528157 17.07662876565512 12.67610941890295
941 4 14.93893821528157 17.07662876565512 21.12684903150491
942 2 14.93893821528157 17.07662876565513 4.225369806300981
943 1 14.93893821528157 19.51614716074871 0
944 2 14.93893821528157 19.51614716074871 8.450739612601962
945 5 14.93893821528157 19.51614716074871 16.90147922520393
946 3 14.93893821528157 19.51614716074872 25.35221883780589
947 3 14.93893821528157 21.9556655558423 4.225369806300981
948 2 14.93893821528157 21.9556655558423 38.02832825670883
949 5 14.93893821528157 21.9556655558423 12.67610941890294
950 4 14.93893821528157 21.9556655558423 21.12684903150491
951 3 14.93893821528157 24.39518395093589 0
952 3 14.93893821528157 24.39518395093589 8.450739612601962
953 5 14.93893821528157 24.39518395093589 25.35221883780589
954 3 14.93893821528157 24.39518395093589 33.80295845040786
955 4 14.93893821528157 24.39518395093589 16.90147922520393
956 1 14.93893821528157 26.83470234602948 4.225369806300981
957 1 14.93893821528157 26.83470234602948 12.67610941890295
958 4 14.93893821528157 26.83470234602948 21.12684903150491
959 5 14.93893821528157 26.83470234602948 38.02832825670883
960 5 15.93486742963367 2.439518395093587 35.21141505250818
961 3 15.93486742963367 4.879036790187177 39.43678485880917
962 1 15.93486742963367 7.318555185280768 35.21141505250818
963 4 15.93486742963367 17.07662876565512 35.21141505250818
964 2 15.93486742963367 0 14.08456602100328
965 3 15.93486742963367 0 30.9860452462072
966 1 15.93486742963367 4.879036790187177 14.08456602100328
967 2 15.93486742963367 4.879036790187177 30.9860452462072
968 3 15.93486742963367 9.758073580374358 30.9860452462072
969 1 15.93486742963367 14.63711037056154 30.9860452462072
970 4 15.93486742963367 19.51614716074871 30.9860452462072
971 4 15.93486742963367 0 5.633826408401311
972 5 15.93486742963367 0 22.53530563360524
973 5 15.93486742963367 0 39.43678485880917
974 1 15.93486742963367 2.439518395093587 9.859196214702292
975 3 15.93486742963367 2.43951839509359 1.408456602100329
976 1 15.93486742963367 2.43951839509359 18.30993582730426
977 5 15.93486742963367 2.43951839509359 26.76067543990622
978 2 15.93486742963367 4.879036790187177 5.633826408401311
979 3 15.93486742963367 4.879036790187181 22.53530563360524
980 1 15.93486742963367 7.318555185280766 1.408456602100329
981 1 15.93486742963367 7.318555185280768 9.859196214702292
982 1 15.93486742963367 7.318555185280768 18.30993582730426
983 4 15.93486742963367 7.318555185280768 26.76067543990622
984 2 15.93486742963367 9.758073580374354 22.53530563360524
985 1 15.93486742963367 9.758073580374356 5.633826408401311
986 5 15.93486742963367 9.758073580374358 14.08456602100328
987 1 15.93486742963367 9.758073580374358 39.43678485880917
988 5 15.93486742963367 12.19759197546795 1.408456602100329
989 3 15.93486742963367 12.19759197546795 18.30993582730426
990 4 15.93486742963367 12.19759197546795 26.76067543990622
991 3 15.93486742963367 12.19759197546795 9.859196214702292
992 4 15.93486742963367 12.19759197546795 35.21141505250818
993 1 15.93486742963367 14.63711037056154 5.633826408401311
994 4 15.93486742963367 14.63711037056154 22.53530563360524
995 1 15.93486742963367 14.63711037056154 39.43678485880917
996 3 15.93486742963367 17.07662876565512 9.859196214702292
997 2 15.93486742963367 17.07662876565512 18.30993582730426
998 3 15.93486742963367 17.07662876565513 1.408456602100327
999 2 15.93486742963367 17.07662876565513 26.76067543990622
1000 5 15.93486742963367 19.51614716074871 39.43678485880917
1001 4 15.93486742963367 19.51614716074871 14.08456602100328
1002 4 15.93486742963367 19.51614716074872 22.53530563360524
1003 4 15.93486742963367 21.9556655558423 1.408456602100327
1004 1 15.93486742963367 21.9556655558423 35.21141505250818
1005 3 15.93486742963367 21.9556655558423 9.859196214702289
1006 2 15.93486742963367 21.9556655558423 18.30993582730426
1007 1 15.93486742963367 21.9556655558423 26.76067543990622
1008 4 15.93486742963367 24.39518395093589 5.633826408401308
1009 4 15.93486742963367 24.39518395093589 22.53530563360524
1010 1 15.93486742963367 24.39518395093589 39.43678485880917
1011 5 15.93486742963367 26.83470234602948 26.76067543990622
1012 3 15.93486742963367 26.83470234602948 1.408456602100327
1013 3 15.93486742963367 26.83470234602948 9.859196214702292
1014 5 15.93486742963367 26.83470234602948 18.30993582730426
1015 2 15.93486742963367 26.83470234602948 35.21141505250818
1016 5 15.93486742963367 14.63711037056153 14.08456602100328
1017 3 15.93486742963367 19.51614716074871 5.633826408401308
1018 4 15.93486742963367 24.39518395093589 30.9860452462072
1019 3 15.93486742963367 24.39518395093589 14.08456602100328
1020 1 16.93079664398577 4.879036790187177 36.61987165460852
1021 1 16.93079664398578 0 2.816913204200656
1022 4 16.93079664398578 0 11.26765281680262
1023 5 16.93079664398578 0 19.71839242940458
1024 2 16.93079664398578 0 28.16913204200655
1025 4 16.93079664398578 0 36.61987165460852
1026 1 16.93079664398578 2.439518395093587 7.042283010501638
1027 5 16.93079664398578 2.439518395093587 32.39450184830753
1028 5 16.93079664398578 2.43951839509359 15.4930226231036
1029 5 16.93079664398578 2.43951839509359 23.94376223570556
1030 2 16.93079664398578 2.43951839509359 40.84524146090949
1031 3 16.93079664398578 4.879036790187177 2.816913204200656
1032 3 16.93079664398578 4.879036790187177 11.26765281680262
1033 2 16.93079664398578 4.879036790187177 28.16913204200655
1034 3 16.93079664398578 4.879036790187181 19.71839242940458
1035 5 16.93079664398578 7.318555185280768 7.042283010501638
1036 2 16.93079664398578 7.318555185280768 15.4930226231036
1037 4 16.93079664398578 7.318555185280768 23.94376223570556
1038 1 16.93079664398578 7.318555185280768 32.39450184830753
1039 4 16.93079664398578 7.318555185280768 40.84524146090949
1040 4 16.93079664398578 9.758073580374354 19.71839242940458
1041 3 16.93079664398578 9.758073580374356 2.816913204200656
1042 2 16.93079664398578 9.758073580374358 11.26765281680262
1043 1 16.93079664398578 9.758073580374358 28.16913204200655
1044 5 16.93079664398578 9.758073580374358 36.61987165460852
1045 2 16.93079664398578 12.19759197546795 15.4930226231036
1046 5 16.93079664398578 12.19759197546795 23.94376223570556
1047 1 16.93079664398578 12.19759197546795 40.84524146090949
1048 5 16.93079664398578 12.19759197546795 7.042283010501638
1049 4 16.93079664398578 12.19759197546795 32.39450184830753
1050 5 16.93079664398578 14.63711037056154 2.816913204200656
1051 1 16.93079664398578 14.63711037056154 19.71839242940458
1052 2 16.93079664398578 14.63711037056154 28.16913204200655
1053 3 16.93079664398578 14.63711037056154 36.61987165460852
1054 1 16.93079664398578 17.07662876565512 7.042283010501638
1055 4 16.93079664398578 17.07662876565512 15.4930226231036
1056 5 16.93079664398578 17.07662876565512 32.39450184830753
1057 5 16.93079664398578 17.07662876565512 40.84524146090949
1058 2 16.93079664398578 17.07662876565513 23.94376223570556
1059 3 16.93079664398578 19.51614716074871 36.61987165460852
1060 2 16.93079664398578 19.51614716074871 11.26765281680262
1061 2 16.93079664398578 19.51614716074871 28.16913204200655
1062 2 16.93079664398578 19.51614716074872 19.71839242940458
1063 5 16.93079664398578 21.9556655558423 32.39450184830753
1064 4 16.93079664398578 21.9556655558423 7.042283010501635
1065 3 16.93079664398578 21.9556655558423 15.4930226231036
1066 4 16.93079664398578 21.9556655558423 23.94376223570556
1067 5 16.93079664398578 21.9556655558423 40.84524146090949
1068 5 16.93079664398578 24.39518395093589 2.816913204200654
1069 4 16.93079664398578 24.39518395093589 19.71839242940458
1070 4 16.93079664398578 24.39518395093589 36.61987165460852
1071 4 16.93079664398578 26.83470234602948 23.94376223570556
1072 5 16.93079664398578 26.83470234602948 7.042283010501638
1073 3 16.93079664398578 26.83470234602948 15.4930226231036
1074 2 16.93079664398578 26.83470234602948 32.39450184830753
1075 2 16.93079664398578 14.63711037056153 11.26765281680262
1076 5 16.93079664398578 19.51614716074871 2.816913204200654
1077 3 16.93079664398578 24.39518395093589 28.16913204200655
1078 5 16.93079664398578 24.39518395093589 11.26765281680262
1079 2 16.93079664398578 26.83470234602948 40.84524146090949
1080 1 17.92672585833788 0 0
1081 3 17.92672585833788 0 8.450739612601964
1082 5 17.92672585833788 0 16.90147922520393
1083 1 17.92672585833788 0 25.35221883780589
1084 4 17.92672585833788 0 33.80295845040786
1085 2 17.92672585833788 2.439518395093587 4.225369806300984
1086 3 17.92672585833788 2.439518395093587 29.57758864410687
1087 5 17.92672585833788 2.43951839509359 12.67610941890295
1088 5 17.92672585833788 2.43951839509359 21.12684903150491
1089 1 17.92672585833788 2.43951839509359 38.02832825670883
1090 2 17.92672585833788 4.879036790187177 0
1091 5 17.92672585833788 4.879036790187177 8.450739612601964
1092 4 17.92672585833788 4.879036790187177 25.35221883780589
1093 2 17.92672585833788 4.879036790187177 33.80295845040786
1094 1 17.92672585833788 4.879036790187181 16.90147922520393
1095 1 17.92672585833788 7.318555185280768 4.225369806300984
1096 5 17.92672585833788 7.318555185280768 12.67610941890295
1097 1 17.92672585833788 7.318555185280768 21.12684903150491
1098 1 17.92672585833788 7.318555185280768 29.57758864410687
1099 4 17.92672585833788 7.318555185280768 38.02832825670883
1100 4 17.92672585833788 9.758073580374354 16.90147922520393
1101 2 17.92672585833788 9.758073580374356 0
1102 5 17.92672585833788 9.758073580374358 8.450739612601964
1103 5 17.92672585833788 9.758073580374358 25.35221883780589
1104 1 17.92672585833788 9.758073580374358 33.80295845040786
1105 1 17.92672585833788 12.19759197546795 21.12684903150491
1106 5 17.92672585833788 12.19759197546795 38.02832825670883
1107 4 17.92672585833788 12.19759197546795 4.225369806300984
1108 4 17.92672585833788 14.63711037056154 0
1109 3 17.92672585833788 14.63711037056154 16.90147922520393
1110 5 17.92672585833788 14.63711037056154 25.3522188378059
1111 2 17.92672585833788 14.63711037056154 33.80295845040786
1112 1 17.92672585833788 17.07662876565512 29.57758864410687
1113 3 17.92672585833788 17.07662876565512 38.02832825670883
1114 1 17.92672585833788 17.07662876565513 21.12684903150491
1115 1 17.92672585833788 19.51614716074871 33.80295845040786
1116 1 17.92672585833788 19.51614716074871 8.450739612601964
1117 3 17.92672585833788 19.51614716074871 25.35221883780589
1118 4 17.92672585833788 19.51614716074872 16.90147922520393
1119 5 17.92672585833788 21.9556655558423 21.12684903150491
1120 2 17.92672585833788 21.9556655558423 38.02832825670883
1121 1 17.92672585833788 24.39518395093589 16.90147922520393
1122 1 17.92672585833788 24.39518395093589 42.25369806300982
1123 2 17.92672585833788 24.39518395093589 33.80295845040786
1124 5 17.92672585833788 26.83470234602948 21.12684903150491
1125 3 17.92672585833788 12.19759197546795 12.67610941890295
1126 1 17.92672585833788 12.19759197546795 29.57758864410687
1127 4 17.92672585833788 14.63711037056153 8.450739612601964
1128 5 17.92672585833788 17.07662876565512 4.225369806300984
1129 2 17.92672585833788 17.07662876565512 12.67610941890295
1130 1 17.92672585833788 19.51614716074871 42.25369806300982
1131 4 17.92672585833788 21.9556655558423 29.57758864410687
1132 5 17.92672585833788 21.9556655558423 4.225369806300981
1133 3 17.92672585833788 21.9556655558423 12.67610941890295
1134 4 17.92672585833788 24.39518395093589 25.35221883780589
1135 3 17.92672585833788 24.39518395093589 8.450739612601964
1136 1 17.92672585833788 26.83470234602948 4.225369806300984
1137 2 17.92672585833788 26.83470234602948 12.67610941890295
1138 5 17.92672585833788 26.83470234602948 38.02832825670883
1139 4 17.92672585833788 26.83470234602948 29.57758864410687
1140 4 18.92265507268998 0 5.633826408401311
1141 3 18.92265507268998 0 22.53530563360524
1142 2 18.92265507268998 0 39.43678485880917
1143 4 18.92265507268998 2.439518395093587 1.408456602100327
1144 4 18.92265507268998 2.439518395093587 26.76067543990622
1145 2 18.92265507268998 2.43951839509359 9.859196214702292
1146 1 18.92265507268998 2.43951839509359 18.30993582730426
1147 1 18.92265507268998 2.43951839509359 35.21141505250818
1148 3 18.92265507268998 4.879036790187177 5.633826408401311
1149 3 18.92265507268998 4.879036790187177 22.53530563360524
1150 5 18.92265507268998 4.879036790187177 30.9860452462072
1151 2 18.92265507268998 7.318555185280768 1.408456602100327
1152 4 18.92265507268998 7.318555185280768 9.859196214702292
1153 4 18.92265507268998 7.318555185280768 18.30993582730426
1154 3 18.92265507268998 7.318555185280768 26.76067543990622
1155 5 18.92265507268998 7.318555185280768 35.21141505250818
1156 3 18.92265507268998 9.758073580374354 39.43678485880917
1157 5 18.92265507268998 9.758073580374358 22.53530563360524
1158 2 18.92265507268998 12.19759197546795 18.30993582730426
1159 4 18.92265507268998 12.19759197546795 35.21141505250818
1160 1 18.92265507268998 12.19759197546795 1.408456602100327
1161 1 18.92265507268998 14.63711037056154 22.53530563360524
1162 1 18.92265507268998 17.07662876565512 26.76067543990622
1163 1 18.92265507268998 17.07662876565512 35.21141505250818
1164 2 18.92265507268998 17.07662876565513 18.30993582730426
1165 5 18.92265507268998 19.51614716074871 22.53530563360524
1166 4 18.92265507268998 19.51614716074872 39.43678485880917
1167 2 18.92265507268998 21.9556655558423 18.30993582730426
1168 2 18.92265507268998 21.9556655558423 35.21141505250818
1169 1 18.92265507268998 26.83470234602948 18.30993582730426
1170 4 18.92265507268999 0 14.08456602100327
1171 3 18.92265507268999 0 30.9860452462072
1172 2 18.92265507268999 4.879036790187181 14.08456602100327
1173 4 18.92265507268999 4.879036790187181 39.43678485880917
1174 5 18.92265507268999 9.758073580374354 14.08456602100327
1175 5 18.92265507268999 9.758073580374358 5.633826408401311
1176 5 18.92265507268999 9.758073580374358 30.9860452462072
1177 1 18.92265507268999 12.19759197546795 9.859196214702292
1178 5 18.92265507268999 12.19759197546795 26.76067543990622
1179 5 18.92265507268999 14.63711037056153 39.43678485880917
1180 5 18.92265507268999 14.63711037056153 5.633826408401311
1181 1 18.92265507268999 14.63711037056154 14.08456602100327
1182 5 18.92265507268999 14.63711037056154 30.9860452462072
1183 3 18.92265507268999 17.07662876565512 1.408456602100327
1184 2 18.92265507268999 17.07662876565512 9.859196214702292
1185 2 18.92265507268999 19.51614716074871 30.9860452462072
1186 1 18.92265507268999 19.51614716074871 5.633826408401311
1187 1 18.92265507268999 19.51614716074872 14.08456602100327
1188 5 18.92265507268999 21.9556655558423 26.76067543990622
1189 3 18.92265507268999 21.9556655558423 1.408456602100325
1190 2 18.92265507268999 21.9556655558423 9.859196214702292
1191 1 18.92265507268999 24.39518395093589 14.08456602100327
1192 3 18.92265507268999 24.39518395093589 22.53530563360524
1193 4 18.92265507268999 24.39518395093589 39.43678485880917
1194 2 18.92265507268999 24.39518395093589 5.633826408401311
1195 2 18.92265507268999 24.39518395093589 30.9860452462072
1196 5 18.92265507268999 26.83470234602948 1.408456602100327
1197 3 18.92265507268999 26.83470234602948 9.859196214702292
1198 3 18.92265507268999 26.83470234602948 26.76067543990622
1199 3 18.92265507268999 26.83470234602948 35.21141505250818
1200 5 19.91858428704209 0 2.816913204200654
1201 4 19.91858428704209 0 19.71839242940458
1202 4 19.91858428704209 0 36.61987165460851
1203 2 19.91858428704209 2.439518395093587 23.94376223570556
1204 4 19.91858428704209 4.879036790187177 2.816913204200654
1205 4 19.91858428704209 4.879036790187177 19.71839242940458
1206 1 19.91858428704209 4.879036790187177 28.16913204200655
1207 5 19.91858428704209 7.318555185280768 23.94376223570556
1208 1 19.91858428704209 9.758073580374354 36.61987165460852
1209 5 19.91858428704209 9.758073580374358 19.71839242940458
1210 2 19.91858428704209 14.63711037056154 19.71839242940459
1211 2 19.91858428704209 17.07662876565512 23.94376223570556
1212 1 19.91858428704209 19.51614716074871 19.71839242940458
1213 2 19.91858428704209 19.51614716074872 36.61987165460852
1214 5 19.91858428704209 0 11.26765281680262
1215 4 19.91858428704209 0 28.16913204200655
1216 2 19.91858428704209 2.43951839509359 7.042283010501638
1217 3 19.91858428704209 2.43951839509359 15.4930226231036
1218 2 19.91858428704209 2.43951839509359 32.39450184830753
1219 1 19.91858428704209 2.43951839509359 40.84524146090949
1220 5 19.91858428704209 4.879036790187181 11.26765281680262
1221 4 19.91858428704209 7.318555185280768 7.042283010501638
1222 2 19.91858428704209 7.318555185280768 15.4930226231036
1223 3 19.91858428704209 7.318555185280768 32.39450184830753
1224 5 19.91858428704209 7.318555185280768 40.84524146090949
1225 2 19.91858428704209 9.758073580374354 11.26765281680262
1226 3 19.91858428704209 9.758073580374358 2.816913204200654
1227 3 19.91858428704209 9.758073580374358 28.16913204200655
1228 4 19.91858428704209 12.19759197546794 40.84524146090949
1229 3 19.91858428704209 12.19759197546795 7.042283010501638
1230 5 19.91858428704209 12.19759197546795 15.4930226231036
1231 2 19.91858428704209 12.19759197546795 32.39450184830753
1232 1 19.91858428704209 12.19759197546795 23.94376223570556
1233 5 19.91858428704209 14.63711037056154 11.26765281680262
1234 3 19.91858428704209 14.63711037056154 28.16913204200655
1235 5 19.91858428704209 17.07662876565512 7.042283010501638
1236 2 19.91858428704209 17.07662876565512 32.39450184830753
1237 1 19.91858428704209 17.07662876565513 15.4930226231036
1238 5 19.91858428704209 17.07662876565513 40.84524146090949
1239 1 19.91858428704209 19.51614716074871 28.16913204200655
1240 5 19.91858428704209 19.51614716074871 2.816913204200654
1241 4 19.91858428704209 19.51614716074872 11.26765281680262
1242 2 19.91858428704209 21.9556655558423 23.94376223570556
1243 3 19.91858428704209 21.9556655558423 7.042283010501638
1244 1 19.91858428704209 21.9556655558423 15.4930226231036
1245 2 19.91858428704209 21.9556655558423 32.39450184830753
1246 3 19.91858428704209 21.9556655558423 40.84524146090949
1247 1 19.91858428704209 24.39518395093589 11.26765281680262
1248 1 19.91858428704209 24.39518395093589 28.16913204200655
1249 3 19.91858428704209 26.83470234602948 15.4930226231036
1250 3 19.91858428704209 26.83470234602948 40.84524146090949
1251 4 19.91858428704209 26.83470234602948 7.042283010501638
1252 5 19.91858428704209 26.83470234602948 23.94376223570556
1253 5 19.91858428704209 4.879036790187181 36.61987165460852
1254 2 19.91858428704209 14.63711037056153 36.61987165460852
1255 4 19.91858428704209 14.63711037056153 2.816913204200654
1256 3 19.91858428704209 24.39518395093589 19.71839242940458
1257 2 19.91858428704209 24.39518395093589 36.61987165460852
1258 4 19.91858428704209 24.39518395093589 2.816913204200654
1259 2 19.91858428704209 26.83470234602948 32.39450184830753
1260 2 20.91451350139419 2.439518395093587 21.12684903150491
1261 5 20.91451350139419 4.879036790187177 25.35221883780589
1262 2 20.91451350139419 7.318555185280768 21.12684903150491
1263 1 20.91451350139419 17.07662876565512 21.12684903150491
1264 3 20.91451350139419 0 0
1265 1 20.91451350139419 0 8.450739612601964
1266 4 20.91451350139419 0 16.90147922520393
1267 3 20.91451350139419 0 25.35221883780589
1268 2 20.91451350139419 0 33.80295845040786
1269 5 20.91451350139419 2.43951839509359 4.225369806300981
1270 4 20.91451350139419 2.43951839509359 12.67610941890295
1271 5 20.91451350139419 2.43951839509359 29.57758864410687
1272 1 20.91451350139419 4.879036790187177 0
1273 1 20.91451350139419 4.879036790187177 16.90147922520393
1274 5 20.91451350139419 4.879036790187181 8.450739612601964
1275 3 20.91451350139419 7.318555185280768 4.225369806300981
1276 5 20.91451350139419 7.318555185280768 12.67610941890295
1277 5 20.91451350139419 7.318555185280768 29.57758864410687
1278 4 20.91451350139419 9.758073580374354 8.450739612601964
1279 4 20.91451350139419 9.758073580374354 33.80295845040786
1280 1 20.91451350139419 9.758073580374358 0
1281 2 20.91451350139419 9.758073580374358 16.90147922520393
1282 4 20.91451350139419 9.758073580374358 25.3522188378059
1283 4 20.91451350139419 12.19759197546795 12.67610941890295
1284 3 20.91451350139419 12.19759197546795 29.57758864410687
1285 5 20.91451350139419 14.63711037056154 8.450739612601964
1286 2 20.91451350139419 14.63711037056154 16.90147922520393
1287 3 20.91451350139419 14.63711037056154 25.3522188378059
1288 5 20.91451350139419 17.07662876565512 29.57758864410687
1289 3 20.91451350139419 17.07662876565513 12.67610941890295
1290 2 20.91451350139419 19.51614716074871 25.3522188378059
1291 5 20.91451350139419 19.51614716074871 0
1292 1 20.91451350139419 19.51614716074871 16.90147922520393
1293 1 20.91451350139419 19.51614716074872 8.450739612601964
1294 5 20.91451350139419 19.51614716074872 33.80295845040786
1295 1 20.91451350139419 21.9556655558423 12.67610941890295
1296 5 20.91451350139419 21.9556655558423 29.57758864410687
1297 3 20.91451350139419 24.39518395093589 8.450739612601964
1298 1 20.91451350139419 24.39518395093589 25.35221883780589
1299 5 20.91451350139419 26.83470234602948 12.67610941890295
1300 2 20.9145135013942 2.43951839509359 38.02832825670883
1301 3 20.9145135013942 4.879036790187181 33.80295845040786
1302 2 20.9145135013942 7.318555185280768 38.02832825670883
1303 1 20.9145135013942 12.19759197546794 38.02832825670883
1304 2 20.9145135013942 12.19759197546795 4.225369806300981
1305 1 20.9145135013942 12.19759197546795 21.12684903150491
1306 2 20.9145135013942 14.63711037056153 33.80295845040786
1307 5 20.9145135013942 14.63711037056153 0
1308 4 20.9145135013942 17.07662876565512 4.225369806300981
1309 5 20.9145135013942 17.07662876565513 38.02832825670883
1310 2 20.9145135013942 21.9556655558423 21.12684903150491
1311 3 20.9145135013942 21.9556655558423 4.225369806300981
1312 3 20.9145135013942 21.9556655558423 38.02832825670883
1313 1 20.9145135013942 24.39518395093589 16.90147922520393
1314 2 20.9145135013942 24.39518395093589 33.80295845040786
1315 3 20.9145135013942 24.39518395093589 0
1316 1 20.9145135013942 26.83470234602948 38.02832825670883
1317 5 20.9145135013942 26.83470234602948 4.225369806300981
1318 3 20.9145135013942 26.83470234602948 29.57758864410687
1319 3 20.9145135013942 26.83470234602948 21.12684903150491
1320 4 21.9104427157463 4.879036790187177 22.53530563360524
1321 5 21.9104427157463 0 14.08456602100327
1322 2 21.9104427157463 0 30.9860452462072
1323 1 21.9104427157463 2.439518395093587 18.30993582730425
1324 1 21.9104427157463 2.43951839509359 1.408456602100327
1325 3 21.9104427157463 2.43951839509359 9.859196214702292
1326 4 21.9104427157463 2.43951839509359 26.76067543990622
1327 2 21.9104427157463 4.879036790187177 14.08456602100327
1328 5 21.9104427157463 7.318555185280768 1.408456602100327
1329 3 21.9104427157463 7.318555185280768 9.859196214702292
1330 3 21.9104427157463 7.318555185280768 18.30993582730425
1331 4 21.9104427157463 7.318555185280768 26.76067543990622
1332 5 21.9104427157463 9.758073580374354 30.9860452462072
1333 5 21.9104427157463 9.758073580374358 14.08456602100327
1334 4 21.9104427157463 12.19759197546795 9.859196214702292
1335 4 21.9104427157463 12.19759197546795 26.76067543990622
1336 4 21.9104427157463 14.63711037056154 14.08456602100328
1337 2 21.9104427157463 17.07662876565512 18.30993582730425
1338 2 21.9104427157463 17.07662876565512 26.76067543990622
1339 1 21.9104427157463 17.07662876565513 9.859196214702292
1340 5 21.9104427157463 19.51614716074871 14.08456602100327
1341 3 21.9104427157463 19.51614716074872 30.9860452462072
1342 4 21.9104427157463 21.9556655558423 9.859196214702292
1343 2 21.9104427157463 21.9556655558423 26.76067543990622
1344 1 21.9104427157463 26.83470234602948 9.859196214702292
1345 3 21.9104427157463 0 5.633826408401308
1346 3 21.9104427157463 0 22.53530563360524
1347 5 21.9104427157463 0 39.43678485880917
1348 4 21.9104427157463 2.43951839509359 35.21141505250818
1349 1 21.9104427157463 4.879036790187177 39.43678485880917
1350 5 21.9104427157463 4.879036790187181 5.633826408401308
1351 3 21.9104427157463 4.879036790187181 30.9860452462072
1352 2 21.9104427157463 7.318555185280768 35.21141505250818
1353 1 21.9104427157463 9.758073580374354 5.633826408401308
1354 5 21.9104427157463 9.758073580374354 39.43678485880917
1355 2 21.9104427157463 9.758073580374358 22.53530563360524
1356 5 21.9104427157463 12.19759197546794 35.21141505250818
1357 2 21.9104427157463 12.19759197546795 1.408456602100327
1358 4 21.9104427157463 12.19759197546795 18.30993582730425
1359 3 21.9104427157463 14.63711037056153 30.9860452462072
1360 2 21.9104427157463 14.63711037056154 5.633826408401308
1361 2 21.9104427157463 14.63711037056154 22.53530563360524
1362 1 21.9104427157463 14.63711037056154 39.43678485880917
1363 3 21.9104427157463 17.07662876565512 1.408456602100327
1364 3 21.9104427157463 17.07662876565513 35.21141505250818
1365 3 21.9104427157463 19.51614716074871 22.53530563360524
1366 2 21.9104427157463 19.51614716074871 39.43678485880917
1367 2 21.9104427157463 19.51614716074872 5.633826408401308
1368 1 21.9104427157463 21.9556655558423 18.30993582730425
1369 2 21.9104427157463 21.9556655558423 1.408456602100327
1370 5 21.9104427157463 21.9556655558423 35.21141505250818
1371 5 21.9104427157463 24.39518395093589 5.633826408401308
1372 3 21.9104427157463 24.39518395093589 14.08456602100327
1373 5 21.9104427157463 24.39518395093589 30.9860452462072
1374 4 21.9104427157463 24.39518395093589 39.43678485880917
1375 5 21.9104427157463 24.39518395093589 22.53530563360524
1376 5 21.9104427157463 26.83470234602948 35.21141505250818
1377 2 21.9104427157463 26.83470234602948 1.408456602100327
1378 5 21.9104427157463 26.83470234602948 26.76067543990622
1379 5 21.9104427157463 26.83470234602948 18.30993582730425
1380 4 22.9063719300984 0 11.26765281680262
1381 1 22.9063719300984 0 28.16913204200655
1382 4 22.9063719300984 2.439518395093587 15.4930226231036
1383 5 22.9063719300984 4.879036790187177 11.26765281680262
1384 3 22.9063719300984 4.879036790187177 19.71839242940458
1385 1 22.9063719300984 7.318555185280768 15.4930226231036
1386 3 22.9063719300984 9.758073580374354 28.16913204200655
1387 4 22.9063719300984 9.758073580374358 11.26765281680262
1388 5 22.9063719300984 14.63711037056154 11.26765281680262
1389 3 22.9063719300984 17.07662876565512 15.4930226231036
1390 1 22.9063719300984 19.51614716074871 11.26765281680262
1391 2 22.9063719300984 19.51614716074872 28.16913204200655
1392 5 22.90637193009841 0 2.816913204200654
1393 1 22.90637193009841 0 19.71839242940458
1394 3 22.90637193009841 0 36.61987165460852
1395 2 22.90637193009841 2.439518395093587 40.84524146090949
1396 2 22.90637193009841 2.43951839509359 7.042283010501635
1397 4 22.90637193009841 2.43951839509359 23.94376223570556
1398 5 22.90637193009841 2.43951839509359 32.39450184830753
1399 4 22.90637193009841 4.879036790187177 36.61987165460852
1400 5 22.90637193009841 4.879036790187181 2.816913204200654
1401 1 22.90637193009841 4.879036790187181 28.16913204200655
1402 5 22.90637193009841 7.318555185280764 40.84524146090949
1403 3 22.90637193009841 7.318555185280768 7.042283010501635
1404 5 22.90637193009841 7.318555185280768 23.94376223570556
1405 2 22.90637193009841 7.318555185280768 32.39450184830753
1406 1 22.90637193009841 9.758073580374354 2.816913204200654
1407 2 22.90637193009841 9.758073580374354 36.61987165460852
1408 2 22.90637193009841 9.758073580374358 19.71839242940458
1409 1 22.90637193009841 12.19759197546794 32.39450184830753
1410 1 22.90637193009841 12.19759197546795 7.042283010501635
1411 1 22.90637193009841 12.19759197546795 23.94376223570556
1412 4 22.90637193009841 12.19759197546795 15.4930226231036
1413 3 22.90637193009841 12.19759197546795 40.84524146090949
1414 4 22.90637193009841 14.63711037056153 28.16913204200655
1415 1 22.90637193009841 14.63711037056154 2.816913204200654
1416 4 22.90637193009841 14.63711037056154 19.71839242940458
1417 3 22.90637193009841 14.63711037056154 36.61987165460852
1418 1 22.90637193009841 17.07662876565512 23.94376223570556
1419 5 22.90637193009841 17.07662876565512 40.84524146090949
1420 5 22.90637193009841 17.07662876565513 7.042283010501635
1421 3 22.90637193009841 17.07662876565513 32.39450184830753
1422 4 22.90637193009841 19.51614716074871 19.71839242940458
1423 3 22.90637193009841 19.51614716074871 36.61987165460852
1424 1 22.90637193009841 19.51614716074872 2.816913204200654
1425 1 22.90637193009841 21.9556655558423 15.4930226231036
1426 3 22.90637193009841 21.9556655558423 40.84524146090949
1427 3 22.90637193009841 21.9556655558423 7.042283010501635
1428 3 22.90637193009841 21.9556655558423 23.94376223570556
1429 5 22.90637193009841 21.9556655558423 32.39450184830753
1430 5 22.90637193009841 24.39518395093589 2.816913204200654
1431 1 22.90637193009841 24.39518395093589 11.26765281680262
1432 4 22.90637193009841 24.39518395093589 28.16913204200655
1433 4 22.90637193009841 24.39518395093589 36.61987165460852
1434 4 22.90637193009841 24.39518395093589 19.71839242940458
1435 4 22.90637193009841 26.83470234602948 7.042283010501635
1436 2 22.90637193009841 26.83470234602948 32.39450184830753
1437 5 22.90637193009841 26.83470234602948 23.94376223570556
1438 2 22.90637193009841 26.83470234602948 15.4930226231036
1439 4 22.90637193009841 26.83470234602948 40.84524146090949
1440 3 23.9023011444505 2.439518395093587 12.67610941890295
1441 2 23.9023011444505 4.879036790187177 16.90147922520393
1442 2 23.9023011444505 7.318555185280768 12.67610941890295
1443 2 23.9023011444505 17.07662876565512 12.67610941890295
1444 1 23.90230114445051 0 0
1445 5 23.90230114445051 0 8.450739612601962
1446 1 23.90230114445051 0 16.90147922520393
1447 5 23.90230114445051 0 25.35221883780589
1448 3 23.90230114445051 0 33.80295845040786
1449 3 23.90230114445051 2.439518395093587 38.02832825670884
1450 4 23.90230114445051 2.43951839509359 4.225369806300981
1451 4 23.90230114445051 2.43951839509359 21.12684903150491
1452 3 23.90230114445051 2.43951839509359 29.57758864410687
1453 5 23.90230114445051 4.879036790187177 8.450739612601962
1454 4 23.90230114445051 4.879036790187177 33.80295845040786
1455 2 23.90230114445051 4.879036790187181 0
1456 5 23.90230114445051 4.879036790187181 25.3522188378059
1457 4 23.90230114445051 7.318555185280764 38.02832825670883
1458 1 23.90230114445051 7.318555185280768 4.225369806300981
1459 2 23.90230114445051 7.318555185280768 21.12684903150491
1460 2 23.90230114445051 7.318555185280768 29.57758864410687
1461 2 23.90230114445051 9.758073580374354 0
1462 5 23.90230114445051 9.758073580374354 25.3522188378059
1463 5 23.90230114445051 9.758073580374354 33.80295845040786
1464 4 23.90230114445051 9.758073580374358 8.450739612601962
1465 5 23.90230114445051 9.758073580374358 16.90147922520393
1466 2 23.90230114445051 12.19759197546794 29.57758864410687
1467 4 23.90230114445051 12.19759197546795 4.225369806300981
1468 2 23.90230114445051 12.19759197546795 21.12684903150491
1469 5 23.90230114445051 12.19759197546795 12.67610941890295
1470 1 23.90230114445051 12.19759197546795 38.02832825670883
1471 1 23.90230114445051 14.63711037056153 25.3522188378059
1472 1 23.90230114445051 14.63711037056154 0
1473 3 23.90230114445051 14.63711037056154 8.450739612601968
1474 2 23.90230114445051 14.63711037056154 16.90147922520393
1475 5 23.90230114445051 14.63711037056154 33.80295845040786
1476 2 23.90230114445051 17.07662876565512 21.12684903150491
1477 4 23.90230114445051 17.07662876565512 38.02832825670883
1478 3 23.90230114445051 17.07662876565513 4.225369806300981
1479 1 23.90230114445051 17.07662876565513 29.57758864410687
1480 2 23.90230114445051 19.51614716074871 16.90147922520393
1481 3 23.90230114445051 19.51614716074871 8.450739612601962
1482 2 23.90230114445051 19.51614716074871 33.80295845040786
1483 1 23.90230114445051 19.51614716074872 0
1484 2 23.90230114445051 19.51614716074872 25.3522188378059
1485 5 23.90230114445051 21.9556655558423 12.67610941890295
1486 5 23.90230114445051 21.9556655558423 38.02832825670883
1487 1 23.90230114445051 21.9556655558423 4.225369806300981
1488 4 23.90230114445051 21.9556655558423 21.12684903150491
1489 3 23.90230114445051 21.9556655558423 29.57758864410687
1490 3 23.90230114445051 24.39518395093589 0
1491 1 23.90230114445051 24.39518395093589 8.450739612601962
1492 1 23.90230114445051 24.39518395093589 25.3522188378059
1493 1 23.90230114445051 24.39518395093589 33.80295845040786
1494 1 23.90230114445051 24.39518395093589 16.90147922520393
1495 4 23.90230114445051 26.83470234602948 4.225369806300981
1496 4 23.90230114445051 26.83470234602948 29.57758864410687
1497 4 23.90230114445051 26.83470234602948 12.67610941890295
1498 4 23.90230114445051 26.83470234602948 38.02832825670883
1499 3 23.90230114445051 26.83470234602948 21.12684903150491
1500 5 24.89823035880261 4.879036790187177 14.08456602100327
1501 2 24.89823035880261 0 5.633826408401308
1502 4 24.89823035880261 0 14.08456602100327
1503 3 24.89823035880261 0 22.53530563360523
1504 5 24.89823035880261 0 30.9860452462072
1505 2 24.89823035880261 0 39.43678485880917
1506 2 24.89823035880261 2.439518395093587 9.859196214702289
1507 4 24.89823035880261 2.439518395093587 35.21141505250819
1508 1 24.89823035880261 2.43951839509359 1.408456602100327
1509 3 24.89823035880261 2.43951839509359 18.30993582730425
1510 1 24.89823035880261 2.43951839509359 26.76067543990622
1511 3 24.89823035880261 4.879036790187174 39.43678485880917
1512 1 24.89823035880261 4.879036790187177 5.633826408401308
1513 4 24.89823035880261 4.879036790187177 30.9860452462072
1514 5 24.89823035880261 7.318555185280764 35.21141505250818
1515 2 24.89823035880261 7.318555185280768 1.408456602100327
1516 4 24.89823035880261 7.318555185280768 9.859196214702289
1517 4 24.89823035880261 7.318555185280768 18.30993582730425
1518 2 24.89823035880261 7.318555185280768 26.76067543990622
1519 4 24.89823035880261 9.758073580374354 22.53530563360524
1520 1 24.89823035880261 9.758073580374354 30.9860452462072
1521 4 24.89823035880261 9.758073580374358 5.633826408401308
1522 5 24.89823035880261 9.758073580374358 14.08456602100328
1523 1 24.89823035880261 9.758073580374358 39.43678485880917
1524 3 24.89823035880261 12.19759197546794 26.76067543990622
1525 3 24.89823035880261 12.19759197546795 1.408456602100327
1526 1 24.89823035880261 12.19759197546795 18.30993582730425
1527 4 24.89823035880261 12.19759197546795 9.859196214702289
1528 2 24.89823035880261 12.19759197546795 35.21141505250818
1529 4 24.89823035880261 14.63711037056154 5.633826408401313
1530 3 24.89823035880261 14.63711037056154 14.08456602100328
1531 4 24.89823035880261 14.63711037056154 30.9860452462072
1532 1 24.89823035880261 14.63711037056154 39.43678485880917
1533 1 24.89823035880261 17.07662876565512 9.859196214702289
1534 1 24.89823035880261 17.07662876565512 18.30993582730425
1535 2 24.89823035880261 17.07662876565512 35.21141505250818
1536 4 24.89823035880261 17.07662876565513 1.408456602100327
1537 4 24.89823035880261 17.07662876565513 26.76067543990622
1538 1 24.89823035880261 19.51614716074871 14.08456602100328
1539 2 24.89823035880261 19.51614716074871 39.43678485880917
1540 3 24.89823035880261 19.51614716074871 5.633826408401308
1541 2 24.89823035880261 19.51614716074871 30.9860452462072
1542 2 24.89823035880261 19.51614716074872 22.53530563360524
1543 2 24.89823035880261 21.9556655558423 9.859196214702289
1544 2 24.89823035880261 21.9556655558423 35.21141505250818
1545 3 24.89823035880261 21.9556655558423 1.408456602100327
1546 1 24.89823035880261 21.9556655558423 18.30993582730425
1547 5 24.89823035880261 21.9556655558423 26.76067543990622
1548 2 24.89823035880261 24.39518395093589 30.9860452462072
1549 4 24.89823035880261 24.39518395093589 14.08456602100327
1550 4 24.89823035880261 24.39518395093589 39.43678485880917
1551 2 24.89823035880261 26.83470234602948 1.408456602100327
1552 5 24.89823035880261 26.83470234602948 26.76067543990622
1553 5 24.89823035880261 26.83470234602948 9.859196214702289
1554 2 24.89823035880261 26.83470234602948 35.21141505250818
1555 5 24.89823035880262 4.879036790187181 22.53530563360524
1556 4 24.89823035880262 14.63711037056153 22.53530563360524
1557 1 24.89823035880262 24.39518395093589 5.633826408401308
1558 4 24.89823035880262 24.39518395093589 22.53530563360524
1559 2 24.89823035880262 26.83470234602948 18.30993582730425
1560 1 25.89415957315472 0 2.816913204200654
1561 5 25.89415957315472 0 11.26765281680262
1562 4 25.89415957315472 0 19.71839242940458
1563 3 25.89415957315472 0 28.16913204200655
1564 5 25.89415957315472 0 36.61987165460852
1565 5 25.89415957315472 2.439518395093587 7.042283010501635
1566 2 25.89415957315472 2.439518395093587 32.39450184830753
1567 3 25.89415957315472 2.439518395093587 40.84524146090949
1568 3 25.89415957315472 2.43951839509359 15.4930226231036
1569 4 25.89415957315472 4.879036790187174 36.61987165460852
1570 3 25.89415957315472 4.879036790187177 2.816913204200654
1571 5 25.89415957315472 4.879036790187177 11.26765281680262
1572 1 25.89415957315472 4.879036790187177 28.16913204200655
1573 1 25.89415957315472 7.318555185280764 32.39450184830753
1574 4 25.89415957315472 7.318555185280768 7.042283010501635
1575 5 25.89415957315472 7.318555185280768 15.4930226231036
1576 1 25.89415957315472 7.318555185280768 40.84524146090949
1577 2 25.89415957315472 9.758073580374354 19.71839242940458
1578 3 25.89415957315472 9.758073580374354 28.16913204200655
1579 4 25.89415957315472 9.758073580374358 2.816913204200654
1580 2 25.89415957315472 9.758073580374358 11.26765281680262
1581 5 25.89415957315472 9.758073580374358 36.61987165460852
1582 4 25.89415957315472 12.19759197546795 15.4930226231036
1583 1 25.89415957315472 12.19759197546795 40.84524146090949
1584 4 25.89415957315472 12.19759197546795 32.39450184830753
1585 3 25.89415957315472 14.63711037056154 2.816913204200659
1586 4 25.89415957315472 14.63711037056154 11.26765281680262
1587 3 25.89415957315472 14.63711037056154 28.16913204200655
1588 3 25.89415957315472 14.63711037056154 36.61987165460852
1589 5 25.89415957315472 17.07662876565512 7.042283010501635
1590 5 25.89415957315472 17.07662876565512 15.4930226231036
1591 2 25.89415957315472 17.07662876565512 32.39450184830753
1592 2 25.89415957315472 19.51614716074871 11.26765281680262
1593 1 25.89415957315472 19.51614716074871 36.61987165460852
1594 5 25.89415957315472 19.51614716074871 2.816913204200654
1595 5 25.89415957315472 19.51614716074871 28.16913204200655
1596 4 25.89415957315472 19.51614716074872 19.71839242940458
1597 3 25.89415957315472 21.9556655558423 32.39450184830753
1598 5 25.89415957315472 21.9556655558423 15.4930226231036
1599 4 25.89415957315472 21.9556655558423 40.84524146090949
1600 5 25.89415957315472 24.39518395093589 28.16913204200655
1601 5 25.89415957315472 24.39518395093589 11.26765281680262
1602 5 25.89415957315472 24.39518395093589 36.61987165460852
1603 3 25.89415957315472 26.83470234602948 40.84524146090949
1604 3 25.89415957315472 26.83470234602948 32.39450184830753
1605 4 25.89415957315472 2.43951839509359 23.94376223570556
1606 2 25.89415957315472 4.879036790187181 19.71839242940458
1607 4 25.89415957315472 7.318555185280768 23.94376223570556
1608 4 25.89415957315472 12.19759197546794 23.94376223570556
1609 5 25.89415957315472 12.19759197546795 7.042283010501635
1610 5 25.89415957315472 14.63711037056153 19.71839242940458
1611 3 25.89415957315472 17.07662876565512 40.84524146090949
1612 1 25.89415957315472 17.07662876565513 23.94376223570556
1613 2 25.89415957315472 21.9556655558423 7.042283010501635
1614 4 25.89415957315472 21.9556655558423 23.94376223570556
1615 1 25.89415957315472 24.39518395093589 2.816913204200654
1616 3 25.89415957315472 24.39518395093589 19.71839242940458
1617 5 25.89415957315472 26.83470234602948 23.94376223570556
1618 3 25.89415957315472 26.83470234602948 15.4930226231036
1619 5 25.89415957315472 26.83470234602948 7.042283010501635
1620 1 26.89008878750682 0 0
1621 3 26.89008878750682 0 16.90147922520393
1622 2 26.89008878750682 0 33.80295845040786
1623 5 26.89008878750682 2.439518395093587 4.225369806300981
1624 3 26.89008878750682 2.439518395093587 29.57758864410688
1625 3 26.89008878750682 2.439518395093587 38.02832825670884
1626 4 26.89008878750682 2.43951839509359 12.67610941890294
1627 3 26.89008878750682 4.879036790187174 33.80295845040786
1628 5 26.89008878750682 4.879036790187177 0
1629 4 26.89008878750682 4.879036790187177 8.450739612601962
1630 3 26.89008878750682 7.318555185280764 29.57758864410687
1631 4 26.89008878750682 7.318555185280768 4.225369806300981
1632 3 26.89008878750682 7.318555185280768 12.67610941890294
1633 4 26.89008878750682 7.318555185280768 38.02832825670884
1634 5 26.89008878750682 9.758073580374354 16.90147922520393
1635 2 26.89008878750682 9.758073580374358 0
1636 1 26.89008878750682 9.758073580374358 33.80295845040786
1637 5 26.89008878750682 12.19759197546795 12.67610941890294
1638 4 26.89008878750682 12.19759197546795 38.02832825670883
1639 4 26.89008878750682 12.19759197546795 29.57758864410687
1640 4 26.89008878750682 14.63711037056154 4.691102846511288e-15
1641 3 26.89008878750682 14.63711037056154 33.80295845040786
1642 3 26.89008878750682 17.07662876565512 4.225369806300981
1643 3 26.89008878750682 17.07662876565512 12.67610941890294
1644 4 26.89008878750682 17.07662876565512 29.57758864410687
1645 3 26.89008878750682 19.51614716074871 33.80295845040786
1646 2 26.89008878750682 19.51614716074871 0
1647 4 26.89008878750682 19.51614716074872 16.90147922520393
1648 5 26.89008878750682 21.9556655558423 29.57758864410687
1649 4 26.89008878750682 21.9556655558423 12.67610941890294
1650 5 26.89008878750682 21.9556655558423 38.02832825670883
1651 3 26.89008878750682 24.39518395093589 33.80295845040786
1652 4 26.89008878750682 26.83470234602948 38.02832825670883
1653 5 26.89008878750682 26.83470234602948 29.57758864410687
1654 4 26.89008878750682 0 8.450739612601962
1655 4 26.89008878750682 0 25.3522188378059
1656 3 26.89008878750682 2.43951839509359 21.12684903150491
1657 3 26.89008878750682 4.879036790187177 25.3522188378059
1658 2 26.89008878750682 4.879036790187181 16.90147922520393
1659 4 26.89008878750682 7.318555185280768 21.12684903150491
1660 4 26.89008878750682 9.758073580374354 25.3522188378059
1661 2 26.89008878750682 9.758073580374358 8.450739612601968
1662 5 26.89008878750682 12.19759197546794 21.12684903150491
1663 4 26.89008878750682 12.19759197546795 4.225369806300981
1664 2 26.89008878750682 14.63711037056153 16.90147922520393
1665 5 26.89008878750682 14.63711037056154 8.450739612601968
1666 2 26.89008878750682 14.63711037056154 25.3522188378059
1667 3 26.89008878750682 17.07662876565512 38.02832825670883
1668 4 26.89008878750682 17.07662876565513 21.12684903150491
1669 1 26.89008878750682 19.51614716074871 8.450739612601968
1670 4 26.89008878750682 19.51614716074871 25.3522188378059
1671 2 26.89008878750682 21.9556655558423 4.225369806300981
1672 3 26.89008878750682 21.9556655558423 21.12684903150491
1673 4 26.89008878750682 24.39518395093589 0
1674 5 26.89008878750682 24.39518395093589 16.90147922520393
1675 3 26.89008878750682 24.39518395093589 25.3522188378059
1676 2 26.89008878750682 24.39518395093589 8.450739612601962
1677 3 26.89008878750682 26.83470234602948 21.12684903150491
1678 1 26.89008878750682 26.83470234602948 4.225369806300981
1679 4 26.89008878750683 26.83470234602948 12.67610941890294
1680 3 27.88601800185892 0 14.08456602100327
1681 3 27.88601800185892 0 30.9860452462072
1682 2 27.88601800185892 0 39.43678485880917
1683 4 27.88601800185892 2.439518395093587 1.408456602100327
1684 5 27.88601800185892 2.439518395093587 35.21141505250819
1685 5 27.88601800185892 4.879036790187174 30.9860452462072
1686 3 27.88601800185892 4.879036790187177 5.633826408401308
1687 3 27.88601800185892 4.879036790187181 39.43678485880917
1688 2 27.88601800185892 7.318555185280768 1.408456602100327
1689 1 27.88601800185892 7.318555185280768 35.21141505250819
1690 1 27.88601800185892 9.758073580374354 14.08456602100328
1691 1 27.88601800185892 9.758073580374354 39.43678485880917
1692 2 27.88601800185892 9.758073580374358 30.9860452462072
1693 4 27.88601800185892 12.19759197546795 35.21141505250818
1694 2 27.88601800185892 14.63711037056154 30.9860452462072
1695 3 27.88601800185892 17.07662876565512 1.408456602100327
1696 5 27.88601800185892 19.51614716074871 30.9860452462072
1697 1 27.88601800185892 19.51614716074872 14.08456602100328
1698 3 27.88601800185892 21.9556655558423 35.21141505250818
1699 5 27.88601800185892 24.39518395093589 39.43678485880917
1700 3 27.88601800185892 24.39518395093589 30.9860452462072
1701 5 27.88601800185892 26.83470234602948 35.21141505250818
1702 5 27.88601800185893 0 5.633826408401308
1703 5 27.88601800185893 0 22.53530563360524
1704 2 27.88601800185893 2.439518395093587 26.76067543990622
1705 1 27.88601800185893 2.43951839509359 9.859196214702289
1706 5 27.88601800185893 2.43951839509359 18.30993582730425
1707 2 27.88601800185893 4.879036790187177 22.53530563360524
1708 2 27.88601800185893 7.318555185280764 26.76067543990622
1709 4 27.88601800185893 7.318555185280768 9.859196214702289
1710 1 27.88601800185893 7.318555185280768 18.30993582730425
1711 1 27.88601800185893 9.758073580374354 22.53530563360524
1712 3 27.88601800185893 9.758073580374358 5.633826408401313
1713 5 27.88601800185893 12.19759197546794 18.30993582730425
1714 3 27.88601800185893 12.19759197546795 9.859196214702289
1715 4 27.88601800185893 12.19759197546795 1.408456602100327
1716 2 27.88601800185893 12.19759197546795 26.76067543990622
1717 5 27.88601800185893 14.63711037056153 39.43678485880917
1718 5 27.88601800185893 14.63711037056154 5.633826408401313
1719 3 27.88601800185893 14.63711037056154 22.53530563360524
1720 1 27.88601800185893 17.07662876565512 9.859196214702289
1721 4 27.88601800185893 17.07662876565512 26.76067543990622
1722 3 27.88601800185893 17.07662876565512 35.21141505250818
1723 3 27.88601800185893 17.07662876565513 18.30993582730425
1724 2 27.88601800185893 19.51614716074871 5.633826408401313
1725 2 27.88601800185893 19.51614716074871 22.53530563360524
1726 1 27.88601800185893 19.51614716074872 39.43678485880917
1727 1 27.88601800185893 21.9556655558423 1.408456602100327
1728 2 27.88601800185893 21.9556655558423 26.76067543990622
1729 2 27.88601800185893 21.9556655558423 9.859196214702289
1730 3 27.88601800185893 21.9556655558423 18.30993582730425
1731 2 27.88601800185893 24.39518395093589 22.53530563360524
1732 2 27.88601800185893 24.39518395093589 5.633826408401308
1733 4 27.88601800185893 26.83470234602948 18.30993582730425
1734 2 27.88601800185893 26.83470234602948 1.408456602100327
1735 4 27.88601800185893 26.83470234602948 26.76067543990622
1736 4 27.88601800185893 4.879036790187181 14.08456602100328
1737 2 27.88601800185893 14.63711037056153 14.08456602100328
1738 2 27.88601800185893 24.39518395093589 14.08456602100328
1739 2 27.88601800185893 26.83470234602948 9.859196214702289
1740 3 28.88194721621103 0 36.61987165460852
1741 1 28.88194721621103 2.439518395093587 32.39450184830753
1742 3 28.88194721621103 2.439518395093593 40.84524146090949
1743 5 28.88194721621103 4.879036790187177 2.816913204200654
1744 4 28.88194721621103 4.879036790187181 36.61987165460852
1745 2 28.88194721621103 7.318555185280768 32.39450184830753
1746 3 28.88194721621103 9.758073580374354 36.61987165460852
1747 1 28.88194721621103 12.19759197546795 32.39450184830753
1748 2 28.88194721621103 21.9556655558423 32.39450184830753
1749 4 28.88194721621103 24.39518395093589 36.61987165460852
1750 4 28.88194721621103 26.83470234602948 32.39450184830753
1751 4 28.88194721621103 0 2.816913204200654
1752 1 28.88194721621103 0 11.26765281680262
1753 3 28.88194721621103 0 19.71839242940458
1754 3 28.88194721621103 0 28.16913204200655
1755 1 28.88194721621103 2.439518395093587 23.94376223570556
1756 4 28.88194721621103 2.43951839509359 7.042283010501635
1757 5 28.88194721621103 4.879036790187174 28.16913204200655
1758 5 28.88194721621103 4.879036790187177 19.71839242940458
1759 5 28.88194721621103 7.318555185280764 23.94376223570556
1760 2 28.88194721621103 7.318555185280768 7.042283010501635
1761 4 28.88194721621103 7.318555185280768 40.84524146090949
1762 2 28.88194721621103 9.758073580374354 11.26765281680262
1763 3 28.88194721621103 9.758073580374354 19.71839242940458
1764 3 28.88194721621103 9.758073580374358 2.816913204200659
1765 4 28.88194721621103 9.758073580374358 28.16913204200655
1766 4 28.88194721621103 12.19759197546794 40.84524146090949
1767 4 28.88194721621103 12.19759197546795 7.042283010501635
1768 3 28.88194721621103 12.19759197546795 23.94376223570556
1769 3 28.88194721621103 14.63711037056153 36.61987165460852
1770 3 28.88194721621103 14.63711037056154 2.816913204200659
1771 3 28.88194721621103 14.63711037056154 19.71839242940458
1772 2 28.88194721621103 14.63711037056154 28.16913204200655
1773 4 28.88194721621103 17.07662876565512 7.042283010501635
1774 5 28.88194721621103 17.07662876565512 23.94376223570556
1775 1 28.88194721621103 17.07662876565513 40.84524146090949
1776 5 28.88194721621103 19.51614716074871 2.816913204200659
1777 1 28.88194721621103 19.51614716074871 28.16913204200655
1778 1 28.88194721621103 19.51614716074871 19.71839242940458
1779 3 28.88194721621103 19.51614716074872 11.26765281680262
1780 1 28.88194721621103 19.51614716074872 36.61987165460852
1781 5 28.88194721621103 21.9556655558423 23.94376223570556
1782 5 28.88194721621103 21.9556655558423 7.042283010501635
1783 5 28.88194721621103 21.9556655558423 40.84524146090949
1784 3 28.88194721621103 24.39518395093589 19.71839242940458
1785 5 28.88194721621103 24.39518395093589 2.816913204200654
1786 1 28.88194721621103 24.39518395093589 28.16913204200655
1787 1 28.88194721621103 26.83470234602948 23.94376223570556
1788 1 28.88194721621104 2.43951839509359 15.4930226231036
1789 4 28.88194721621104 4.879036790187181 11.26765281680262
1790 1 28.88194721621104 7.318555185280768 15.4930226231036
1791 3 28.88194721621104 12.19759197546794 15.4930226231036
1792 2 28.88194721621104 14.63711037056153 11.26765281680262
1793 3 28.88194721621104 17.07662876565512 32.39450184830753
1794 1 28.88194721621104 17.07662876565513 15.4930226231036
1795 1 28.88194721621104 21.9556655558423 15.4930226231036
1796 5 28.88194721621104 24.39518395093589 11.26765281680262
1797 2 28.88194721621104 26.83470234602948 15.4930226231036
1798 1 28.88194721621104 26.83470234602948 40.84524146090949
1799 1 28.88194721621104 26.83470234602948 7.042283010501635
1800 2 29.87787643056313 0 33.80295845040786
1801 5 29.87787643056313 2.439518395093593 38.02832825670884
1802 4 29.87787643056313 4.879036790187177 0
1803 5 29.87787643056313 4.879036790187181 33.80295845040786
1804 1 29.87787643056313 9.758073580374354 33.80295845040786
1805 4 29.87787643056313 24.39518395093589 33.80295845040786
1806 5 29.87787643056313 0 8.450739612601962
1807 4 29.87787643056313 0 25.3522188378059
1808 4 29.87787643056313 2.439518395093587 21.12684903150491
1809 2 29.87787643056313 2.439518395093587 29.57758864410687
1810 3 29.87787643056313 2.43951839509359 4.225369806300981
1811 4 29.87787643056313 4.879036790187174 25.3522188378059
1812 3 29.87787643056313 7.318555185280764 21.12684903150491
1813 5 29.87787643056313 7.318555185280768 4.225369806300981
1814 1 29.87787643056313 7.318555185280768 29.57758864410687
1815 1 29.87787643056313 7.318555185280768 38.02832825670884
1816 3 29.87787643056313 9.758073580374354 8.450739612601968
1817 5 29.87787643056313 9.758073580374358 25.3522188378059
1818 1 29.87787643056313 12.19759197546794 38.02832825670884
1819 5 29.87787643056313 12.19759197546795 4.225369806300981
1820 3 29.87787643056313 12.19759197546795 29.57758864410687
1821 4 29.87787643056313 12.19759197546795 21.12684903150491
1822 1 29.87787643056313 14.63711037056154 25.3522188378059
1823 5 29.87787643056313 17.07662876565512 4.225369806300981
1824 4 29.87787643056313 17.07662876565512 21.12684903150491
1825 1 29.87787643056313 17.07662876565513 38.02832825670883
1826 4 29.87787643056313 19.51614716074871 25.3522188378059
1827 5 29.87787643056313 19.51614716074872 8.450739612601968
1828 2 29.87787643056313 21.9556655558423 21.12684903150491
1829 1 29.87787643056313 21.9556655558423 4.225369806300981
1830 3 29.87787643056313 21.9556655558423 29.57758864410687
1831 5 29.87787643056313 21.9556655558423 38.02832825670883
1832 4 29.87787643056313 24.39518395093589 25.3522188378059
1833 2 29.87787643056313 26.83470234602948 29.57758864410687
1834 3 29.87787643056313 26.83470234602948 21.12684903150491
1835 5 29.87787643056314 0 0
1836 5 29.87787643056314 0 16.90147922520393
1837 5 29.87787643056314 2.43951839509359 12.67610941890294
1838 5 29.87787643056314 4.879036790187177 16.90147922520393
1839 3 29.87787643056314 4.879036790187181 8.450739612601968
1840 4 29.87787643056314 7.318555185280768 12.67610941890294
1841 4 29.87787643056314 9.758073580374354 16.90147922520393
1842 2 29.87787643056314 9.758073580374358 4.691102846511288e-15
1843 2 29.87787643056314 12.19759197546794 12.67610941890294
1844 5 29.87787643056314 14.63711037056153 8.450739612601968
1845 2 29.87787643056314 14.63711037056153 33.80295845040786
1846 2 29.87787643056314 14.63711037056154 4.691102846511288e-15
1847 1 29.87787643056314 14.63711037056154 16.90147922520393
1848 2 29.87787643056314 17.07662876565512 29.57758864410687
1849 2 29.87787643056314 17.07662876565513 12.67610941890294
1850 1 29.87787643056314 19.51614716074871 4.691102846511288e-15
1851 1 29.87787643056314 19.51614716074871 16.90147922520393
1852 4 29.87787643056314 19.51614716074872 33.80295845040786
1853 5 29.87787643056314 21.9556655558423 12.67610941890294
1854 3 29.87787643056314 24.39518395093589 8.450739612601968
1855 1 29.87787643056314 24.39518395093589 16.90147922520393
1856 5 29.87787643056314 24.39518395093589 0
1857 4 29.87787643056314 26.83470234602948 12.67610941890294
1858 1 29.87787643056314 26.83470234602948 38.02832825670883
1859 5 29.87787643056314 26.83470234602948 4.225369806300981
1860 1 30.87380564491523 2.439518395093593 35.21141505250819
1861 4 30.87380564491524 0 5.633826408401308
1862 1 30.87380564491524 0 22.53530563360524
1863 5 30.87380564491524 0 30.9860452462072
1864 4 30.87380564491524 0 39.43678485880917
1865 1 30.87380564491524 2.439518395093587 26.76067543990622
1866 5 30.87380564491524 4.879036790187174 22.53530563360524
1867 2 30.87380564491524 4.879036790187181 30.9860452462072
1868 2 30.87380564491524 4.879036790187181 39.43678485880917
1869 4 30.87380564491524 7.318555185280768 26.76067543990622
1870 5 30.87380564491524 9.758073580374354 5.633826408401313
1871 3 30.87380564491524 9.758073580374354 30.9860452462072
1872 3 30.87380564491524 9.758073580374358 22.53530563360524
1873 4 30.87380564491524 12.19759197546795 26.76067543990622
1874 5 30.87380564491524 14.63711037056154 22.53530563360524
1875 2 30.87380564491524 14.63711037056154 39.43678485880917
1876 2 30.87380564491524 19.51614716074871 22.53530563360524
1877 3 30.87380564491524 19.51614716074871 39.43678485880917
1878 1 30.87380564491524 19.51614716074872 5.633826408401313
1879 4 30.87380564491524 21.9556655558423 26.76067543990622
1880 1 30.87380564491524 24.39518395093589 30.9860452462072
1881 4 30.87380564491524 24.39518395093589 22.53530563360524
1882 4 30.87380564491524 26.83470234602948 26.76067543990622
1883 4 30.87380564491524 0 14.08456602100328
1884 4 30.87380564491524 2.439518395093587 18.30993582730426
1885 1 30.87380564491524 2.43951839509359 1.408456602100327
1886 5 30.87380564491524 2.43951839509359 9.859196214702289
1887 3 30.87380564491524 4.879036790187177 14.08456602100328
1888 4 30.87380564491524 4.879036790187181 5.633826408401313
1889 4 30.87380564491524 7.318555185280764 18.30993582730425
1890 3 30.87380564491524 7.318555185280768 1.408456602100327
1891 5 30.87380564491524 7.318555185280768 9.859196214702289
1892 3 30.87380564491524 7.318555185280768 35.21141505250819
1893 2 30.87380564491524 9.758073580374354 14.08456602100328
1894 2 30.87380564491524 9.758073580374354 39.43678485880917
1895 1 30.87380564491524 12.19759197546794 9.859196214702289
1896 3 30.87380564491524 12.19759197546794 35.21141505250819
1897 2 30.87380564491524 12.19759197546795 1.408456602100327
1898 2 30.87380564491524 12.19759197546795 18.30993582730425
1899 4 30.87380564491524 14.63711037056153 5.633826408401313
1900 2 30.87380564491524 14.63711037056153 30.9860452462072
1901 4 30.87380564491524 14.63711037056154 14.08456602100328
1902 2 30.87380564491524 17.07662876565512 1.408456602100327
1903 4 30.87380564491524 17.07662876565512 18.30993582730425
1904 1 30.87380564491524 17.07662876565512 26.76067543990622
1905 3 30.87380564491524 17.07662876565513 9.859196214702289
1906 2 30.87380564491524 17.07662876565513 35.21141505250818
1907 4 30.87380564491524 19.51614716074871 14.08456602100328
1908 2 30.87380564491524 19.51614716074872 30.9860452462072
1909 2 30.87380564491524 21.9556655558423 18.30993582730425
1910 2 30.87380564491524 21.9556655558423 1.408456602100327
1911 1 30.87380564491524 21.9556655558423 9.859196214702289
1912 2 30.87380564491524 21.9556655558423 35.21141505250818
1913 1 30.87380564491524 24.39518395093589 5.633826408401313
1914 1 30.87380564491524 24.39518395093589 14.08456602100328
1915 4 30.87380564491524 24.39518395093589 39.43678485880917
1916 1 30.87380564491524 26.83470234602948 9.859196214702289
1917 1 30.87380564491524 26.83470234602948 35.21141505250818
1918 5 30.87380564491524 26.83470234602948 1.408456602100327
1919 5 30.87380564491524 26.83470234602948 18.30993582730425
1920 3 31.86973485926734 0 28.16913204200655
1921 2 31.86973485926734 2.439518395093587 23.94376223570556
1922 3 31.86973485926734 2.439518395093593 32.39450184830753
1923 1 31.86973485926734 4.879036790187181 28.16913204200655
1924 4 31.86973485926734 7.318555185280768 23.94376223570556
1925 2 31.86973485926734 9.758073580374354 28.16913204200655
1926 4 31.86973485926734 12.19759197546795 23.94376223570556
1927 5 31.86973485926734 17.07662876565512 40.84524146090949
1928 4 31.86973485926734 21.9556655558423 23.94376223570556
1929 1 31.86973485926734 24.39518395093589 28.16913204200655
1930 4 31.86973485926734 26.83470234602948 23.94376223570556
1931 5 31.86973485926735 0 2.816913204200654
1932 5 31.86973485926735 0 11.26765281680262
1933 2 31.86973485926735 0 19.71839242940458
1934 2 31.86973485926735 0 36.61987165460852
1935 2 31.86973485926735 2.439518395093587 15.4930226231036
1936 4 31.86973485926735 2.439518395093587 40.84524146090949
1937 3 31.86973485926735 2.43951839509359 7.042283010501635
1938 5 31.86973485926735 4.879036790187174 19.71839242940458
1939 2 31.86973485926735 4.879036790187177 11.26765281680262
1940 2 31.86973485926735 4.879036790187181 2.816913204200659
1941 4 31.86973485926735 4.879036790187181 36.61987165460852
1942 4 31.86973485926735 7.318555185280764 15.4930226231036
1943 5 31.86973485926735 7.318555185280768 7.042283010501635
1944 3 31.86973485926735 7.318555185280768 32.39450184830753
1945 2 31.86973485926735 7.318555185280768 40.84524146090949
1946 5 31.86973485926735 9.758073580374354 2.816913204200659
1947 5 31.86973485926735 9.758073580374354 11.26765281680262
1948 1 31.86973485926735 9.758073580374354 36.61987165460852
1949 5 31.86973485926735 9.758073580374358 19.71839242940458
1950 3 31.86973485926735 12.19759197546794 7.042283010501635
1951 1 31.86973485926735 12.19759197546794 32.39450184830753
1952 4 31.86973485926735 12.19759197546795 15.4930226231036
1953 2 31.86973485926735 12.19759197546795 40.84524146090949
1954 4 31.86973485926735 14.63711037056153 2.816913204200659
1955 1 31.86973485926735 14.63711037056153 28.16913204200655
1956 3 31.86973485926735 14.63711037056154 11.26765281680262
1957 5 31.86973485926735 14.63711037056154 19.71839242940458
1958 3 31.86973485926735 14.63711037056154 36.61987165460852
1959 4 31.86973485926735 17.07662876565512 15.4930226231036
1960 1 31.86973485926735 17.07662876565512 23.94376223570556
1961 4 31.86973485926735 17.07662876565513 7.042283010501635
1962 3 31.86973485926735 17.07662876565513 32.39450184830753
1963 2 31.86973485926735 19.51614716074871 19.71839242940458
1964 3 31.86973485926735 19.51614716074871 11.26765281680262
1965 4 31.86973485926735 19.51614716074871 36.61987165460852
1966 5 31.86973485926735 19.51614716074872 2.816913204200659
1967 1 31.86973485926735 19.51614716074872 28.16913204200655
1968 5 31.86973485926735 21.9556655558423 15.4930226231036
1969 4 31.86973485926735 21.9556655558423 40.84524146090949
1970 5 31.86973485926735 21.9556655558423 7.042283010501635
1971 4 31.86973485926735 21.9556655558423 32.39450184830753
1972 5 31.86973485926735 24.39518395093589 2.816913204200659
1973 2 31.86973485926735 24.39518395093589 11.26765281680262
1974 3 31.86973485926735 24.39518395093589 36.61987165460852
1975 1 31.86973485926735 24.39518395093589 19.71839242940458
1976 2 31.86973485926735 26.83470234602948 7.042283010501635
1977 1 31.86973485926735 26.83470234602948 15.4930226231036
1978 4 31.86973485926735 26.83470234602948 40.84524146090949
1979 5 31.86973485926735 26.83470234602948 32.39450184830753
1980 2 32.86566407361945 2.439518395093589 29.57758864410687
